%%MatrixMarket matrix array integer general 
%============================================================
% Creator: ANSYS Inc
% 
% This is a 34903 x 1 Matrix
%============================================================
34903 1
1151
1152
3612
4198
12731
12742
12735
12737
12743
26595
3598
12741
26508
26512
1153
12748
12738
12746
1198
3631
1199
4122
13010
13018
13007
13012
26668
13022
3615
13009
26608
26611
1197
13002
12998
13003
1181
3618
3603
4204
12910
26542
12909
12912
26627
26545
1182
12906
12917
12919
3630
26544
12911
26664
1180
12904
12905
12902
1179
12896
12900
12901
1150
1167
4107
1200
12725
12817
12730
12726
12812
13028
1195
3593
1196
4121
12986
12992
12981
12989
26465
12995
3633
12987
26463
26676
2001
4123
13008
13000
13004
13013
17427
2000
5397
12991
17421
12997
12990
12999
13006
1175
3934
12879
12732
12736
26594
12880
1174
12866
12870
12872
1149
12720
12724
12719
5342
12996
26466
12993
26613
26460
13005
2002
13021
13014
13016
17431
13025
1427
14256
12727
13023
1440
12721
14319
12877
1170
1171
3816
1972
12833
12847
12840
12837
12845
17264
4030
12984
12988
12994
17419
1185
1186
3635
4032
12930
12938
12932
12933
12939
26679
1184
12928
12929
12923
3607
12927
26569
26567
3600
12926
26525
26520
1178
3614
3914
12893
26604
12894
12895
26605
26674
1177
12887
12889
12890
1194
12977
12888
12978
1176
12883
12885
12882
1169
3613
4140
12823
12838
12829
12831
12842
26601
1168
1193
12818
12824
12819
12822
12972
12971
1192
12966
12969
12970
1172
1973
1173
4131
12852
12860
12850
12856
17269
12863
12868
12859
12874
2007
17423
13001
17458
3623
5294
12861
12855
12858
12865
26644
3606
26562
12853
26565
3622
12854
26640
26561
1995
12976
17391
12980
12973
12983
17417
17461
1188
1189
3602
3915
12943
12952
12946
12948
12954
26537
3625
26535
12947
26653
3596
26487
26494
26490
1968
12844
17241
17237
4762
12849
12857
12843
12846
26639
1408
4040
12820
12825
12821
14169
12830
17243
12851
1154
3907
1155
3601
12754
12759
12749
12753
26530
12758
1156
12765
12756
12763
3628
26661
12764
26529
3595
26481
26484
26477
4019
1407
12886
12979
12884
14166
12974
17238
17242
4105
12841
12848
12839
26637
26598
26597
2006
17416
12985
17452
3916
26459
26464
26675
26606
3632
3624
26462
26671
26461
26646
26647
26610
26609
26602
3594
4660
26475
26669
26471
26469
26612
26472
26673
1996
17397
13024
17394
3597
3271
26498
12968
12967
24719
24718
1191
12963
12962
12960
3272
12899
24723
12898
26603
24724
12892
12891
14253
1187
3269
12934
12942
12937
12936
12941
24709
12940
12945
24710
26651
1183
3270
12922
24714
12921
12920
12925
12916
12915
12913
4575
26665
26546
26543
26645
26648
26607
17387
1981
12869
17312
17267
4768
1967
12881
12875
12867
12878
17236
1962
12827
17210
14168
17390
14165
4129
26503
26600
26499
26638
1166
3609
3849
3621
12809
26578
12811
12810
26576
26635
12816
12807
12815
26577
26666
26634
13026
13027
13020
13017
3605
3611
3620
4601
26554
26588
26556
26559
26591
26633
3627
26486
26658
26480
26479
26631
26558
3590
26436
26430
26434
3626
26433
26557
26655
26570
26431
26566
14320
14317
1164
3604
3629
4018
12799
26549
12801
12802
26551
26663
12800
26548
26580
1163
12794
12795
12791
4104
12752
26511
12755
26506
26531
12747
12744
3591
26447
26439
26440
3831
13015
13011
13019
17426
3617
4011
26522
26621
26523
26524
26622
26626
12918
5244
26509
26593
26513
26643
26596
12871
12876
3589
3599
4114
26421
26514
26422
26427
26519
26552
3610
26423
26516
26585
26623
26425
26583
3616
26424
26614
26618
1161
2507
1162
12786
20783
12784
12783
12789
12788
12790
26517
20784
12787
12792
5277
12832
17211
12828
17266
17208
17233
17313
4956
3619
26539
26592
26533
26534
26630
26587
26560
26555
26656
26629
26489
26495
26491
3778
26420
26470
26426
26473
26617
26616
26670
17422
17429
2016
17425
17456
17517
3867
3634
26483
26660
26482
26677
26659
3608
26478
26575
26573
26657
26572
26435
26432
3592
26429
26457
26454
1984
17239
17329
17263
3971
12862
12873
26642
4586
26448
26532
26443
26589
26527
26485
26528
26632
3802
26488
26568
26493
26654
26678
26492
26652
4620
26521
26526
26586
26624
26437
26458
26571
26453
26452
26455
4024
26497
26564
26501
26636
26442
26446
26438
1190
3872
12955
12957
12959
12964
26500
12958
26536
26496
12953
12949
5279
26541
26547
26628
26625
26540
26620
26650
26615
4661
26467
26468
26476
26553
26582
26428
1989
17360
17240
17268
3923
26474
26579
26667
3782
26507
26510
26563
26641
26444
1406
14161
14164
14160
1157
2515
1158
12768
12771
12766
12769
20825
12772
12773
20826
1159
12770
12777
12775
2576
1160
21193
12776
12774
12782
12779
21192
12781
21191
12780
26515
12778
12785
29751
5360
1409
14170
14174
14167
17212
14172
1165
2452
12803
12806
12804
12808
20412
4587
26505
26449
26441
26538
26590
28755
2802
12796
12798
12805
22198
17310
1711
12975
15897
12982
29753
4659
26619
26672
26649
34895
2845
22333
12740
12745
29749
29325
1788
12835
12826
16336
29757
3763
26451
26518
26456
26574
26662
26550
26584
29328
1977
17232
17292
17288
2012
17424
17491
17428
4213
2015
17420
17459
17418
17509
17455
17453
17451
1974
17274
17209
17262
12864
29789
29752
27950
27952
29369
28655
24727
28651
30062
28756
2353
12761
12767
12760
19614
33145
28659
29275
29682
28206
2011
5202
17450
17388
17392
17454
17487
5363
17327
17244
17332
17363
28649
28205
24713
24717
24725
29683
29675
24721
28071
4033
1428
14255
14260
14252
17396
14258
30049
24712
17275
14173
29231
28072
29790
17516
17488
1439
2539
14313
17234
14315
14312
14318
17492
17395
17430
28658
28757
28070
2710
12757
12762
21869
12750
28656
29370
30120
24728
12751
22332
29681
29326
29371
28979
4128
17271
17265
17273
17330
28600
28654
3855
14314
17290
14316
17235
30063
27833
29331
28983
17511
17483
29301
24716
27954
27832
27663
29327
28361
28327
28601
4106
24720
26599
26502
12965
3926
14162
14163
17389
17485
2444
12733
12739
20355
2616
12793
12797
21419
29756
27699
29791
24711
29685
32439
15902
29332
20786
29750
15901
12722
20977
170
6615
6620
6616
71
5916
5921
5915
29298
28329
3267
12908
12914
24704
28705
32371
32306
27660
16337
15898
27834
27951
32435
16339
3258
24664
12903
12907
12897
1410
14171
14177
14179
29676
5920
5917
28982
6621
6617
29232
28204
29722
169
6613
6609
6608
72
5924
5923
5928
27838
2691
21785
12723
12734
3266
12944
12951
24699
1429
14266
14257
14262
32733
2700
12729
21829
12814
29273
28657
28362
29234
2026
4765
17457
17574
17460
17513
17518
28330
29728
27695
29724
29755
20413
12813
27664
27698
16340
34878
2561
12728
14254
21115
17510
17507
22199
20780
20978
29754
32379
1438
14311
14306
14308
28716
27694
20827
29778
19616
21195
29684
33146
27533
27662
4127
1983
17291
17311
17289
17325
17309
28706
30119
32370
27534
20785
29300
28364
28247
28652
17359
17321
3256
12931
12935
24651
12924
27532
28069
1405
14157
14159
14155
29779
1997
17393
17398
17403
27535
29781
20824
1982
17270
17314
17318
29773
32732
171
6624
6623
6628
29276
30118
70
5909
5908
5913
28068
3257
12956
12961
24655
12950
28980
20411
29229
27953
29774
28718
29680
4132
1991
17361
17331
17328
17358
17366
28981
28754
21870
21868
20354
21194
29686
28702
20353
27658
1966
14307
17231
17229
3787
2020
17490
17537
17489
17515
17512
14263
29795
19611
1771
16251
12834
16250
15900
17316
17365
20976
16338
17230
17323
15899
1797
16369
12836
16367
28366
24661
27835
14259
21114
27723
20782
2027
17514
17571
17577
2019
4211
17506
17484
17486
17508
17533
6612
28328
5927
1994
14156
17385
17382
24697
30107
32305
5912
24703
27693
27659
3815
14178
17272
27948
32375
21827
1963
14176
17213
17216
17400
17538
29230
17536
17575
29776
19613
21418
114
6248
6250
6249
24701
16248
24698
17383
17532
1655
15567
15565
15566
14309
17531
17573
1694
15806
15808
15807
15564
24647
24648
17215
17317
16335
27947
24656
24654
24
5616
5620
5618
115
6258
6259
6256
69
5900
5906
5901
1751
16133
16129
16130
29723
6607
5914
1437
14300
14301
14304
16249
20415
19615
20974
28246
27944
1988
17353
17350
17352
24660
5907
27724
20351
6261
30106
6614
16131
4799
1990
17326
17362
17322
17364
17357
1675
15688
15690
15689
14265
4537
26504
29687
29780
30105
6247
27537
27726
1732
16008
16006
16007
15687
113
6242
6240
6241
29299
16009
6627
25
5626
5628
5627
20358
1976
17228
17285
17283
21111
1411
14175
14181
14183
1674
15684
15681
15682
1720
15933
15935
15934
28363
20410
28717
5617
172
6631
6636
6632
16368
5619
3927
24726
28721
28722
5625
29775
16132
15561
15683
15563
1733
16015
16018
16017
1742
16078
16076
16077
1770
16246
16244
16245
6245
1695
15812
15814
15813
15685
28650
24653
32092
15804
6257
1719
15932
15929
15930
6234
17355
17351
26
5637
5635
5636
14302
16016
1472
14494
14491
14492
6260
15896
4778
17319
17367
29777
6239
16005
5919
6619
4796
26450
29679
32373
1484
14562
14565
14564
15560
4650
22334
29677
30048
5899
1789
16346
16343
16344
28723
1752
16003
16137
16136
2023
17530
17558
17553
5611
1693
15799
15802
15801
5623
27697
24706
16242
16345
6255
14493
6243
29793
1975
17214
17277
17279
15686
16002
1404
3912
14151
14153
14154
14158
17384
15811
14563
16014
5905
6244
28639
1985
17315
17334
17337
4026
17572
29306
17576
1712
15905
15907
15906
16073
16075
15895
24662
15680
32679
24649
4507
26581
31937
29272
1772
16254
16256
16255
3908
26445
28604
27692
16010
2677
21721
21723
21724
5634
3780
27672
27676
27673
5910
5632
3736
27324
27328
27325
6238
16341
1665
6610
15630
15631
29792
28609
28608
21787
1987
17320
17348
17344
5926
15903
6246
5621
20356
5902
6622
22200
17554
17557
14182
5622
15632
15805
27946
16128
27327
27678
1654
15559
15555
15556
15562
15798
1743
5918
16079
16082
1796
16363
16366
16364
16004
16241
5220
17534
17386
28719
15931
28703
15803
16081
20975
6237
5624
1666
6618
15633
15636
24665
15635
16012
3251
24606
24604
24605
6236
16134
6611
23
5603
5607
5609
5911
5925
5633
20416
6625
16247
5613
27
5642
5644
5643
16135
1692
15795
15797
15796
5608
16243
29305
1696
15820
15818
15819
112
6231
6233
6232
5614
6626
5412
17540
17578
27728
1656
15572
15574
15573
16080
2373
19778
19780
19779
5610
15634
3965
17286
28244
17324
15809
15628
4813
17368
17356
29794
2024
17535
17561
17565
17281
24603
6254
5615
28939
15794
2543
14303
14310
21003
21784
4789
17404
17539
29334
21826
3844
24715
28164
28163
6252
2560
14264
17401
21109
5629
2010
17381
17481
17476
27696
4647
27836
28653
32665
17278
17338
17333
28365
15629
1430
14261
14268
14270
15800
30108
16334
15552
17284
17346
16253
15558
5640
5630
15810
16074
15568
15570
21112
5381
17287
14305
28249
6227
1773
16262
16258
16261
3252
24616
24614
24613
17552
17563
27323
16263
6635
6630
17559
28610
28166
3795
27691
27781
27785
5903
16260
16013
20973
1986
17341
17340
17343
2013
17399
17493
17498
14561
1721
15938
15936
15937
33174
2404
20030
20027
20034
5359
28248
20979
33153
27727
14490
1473
6253
14497
14496
28940
16365
27831
1710
15894
15892
15893
21725
1485
5631
14570
14568
5260
24658
24722
29688
19609
24700
117
6273
6274
6276
5246
28603
28332
32376
15571
4504
27661
29719
31916
1744
16083
16086
16087
168
6603
6605
6602
28641
116
6267
6251
6266
1769
16239
16127
16238
14489
73
5922
5931
5932
4672
29678
28602
32372
15679
15792
27675
6230
17499
17495
17339
16252
16240
1436
14299
14294
14296
15890
15816
6229
15904
17478
4596
20417
28207
28704
6606
32440
32377
31915
14560
20032
1993
17375
14152
17378
4947
27837
34008
32438
21105
16235
4935
32374
32437
33936
24600
5366
14184
17282
27949
16237
111
6225
6222
6223
4013
28245
29244
29243
28367
32539
6264
24650
20350
4777
29725
29233
32538
33201
6634
5081
27539
20787
29274
91
6057
6052
6056
32093
15554
33173
4572
32291
29720
32289
5606
15817
29308
15889
6275
4017
14271
17497
14269
17402
19618
27671
19777
1676
15569
15696
15695
15793
5639
32735
1412
14188
14180
14187
24607
29726
27679
6263
27782
32378
16088
1471
14485
6235
14486
4958
20357
34073
21786
28942
167
6600
6601
6599
14569
17380
17377
15694
32677
5930
28607
1483
5612
14556
14553
15939
24657
4770
32436
28331
32537
106
6179
6176
6178
3874
20414
21828
28203
90
6046
6042
6043
68
5893
5892
5897
1798
16259
16370
16342
1978
17276
17293
17296
21006
28
5652
5638
5650
6217
24705
1787
16072
16331
16330
33187
24615
1979
17300
17298
17303
6278
16371
6228
6262
2607
21190
20781
21371
6596
1753
16138
16011
16141
1
5427
5430
5426
5641
6177
16333
6265
16142
27674
1731
15998
5605
15995
2364
19707
19704
19702
5604
15997
3930
24663
24702
28738
1965
14295
17227
17224
32678
16000
1667
6633
15637
15641
6045
5904
29245
15999
6058
2028
17555
17580
17562
5429
28720
15691
4220
27945
17280
30144
1971
17256
17258
17260
16001
15627
3931
17556
28740
28739
15557
19706
28741
6055
27677
5898
3800
27813
27817
27816
16085
14297
1403
14148
14149
14150
19781
14558
27538
21110
74
5937
5936
5938
15639
21788
2021
17545
17494
17541
16372
6604
4218
17342
30136
17354
14567
5651
15640
1431
14267
14274
14276
15642
6224
21726
28937
32778
21005
20036
5646
14554
1691
15791
15786
15790
16140
32667
2
5440
5435
5438
6269
31919
27326
28379
17479
5894
32664
16236
17223
17261
5929
5934
6040
4203
27725
27329
29333
173
6629
6642
6639
30137
6638
31940
31913
6051
17347
21108
2441
19610
20328
20332
20035
31936
6220
30146
5649
5434
32782
6272
29271
27784
3932
17335
28747
28746
24609
24617
5126
27540
29727
32540
15891
4904
28707
6226
32734
17299
17302
31939
27783
16332
19782
17294
1964
17222
14186
17217
15789
33939
1697
15823
15815
15825
15692
33935
27819
21116
28611
15693
32290
19617
27330
30061
17295
15826
6219
5896
28168
28169
29246
15553
15785
17579
27821
5261
17349
28941
33202
1980
17308
17305
17304
15824
1774
16257
16268
16266
16139
21373
6598
22
5601
5598
5595
2025
17570
17542
17560
2022
17477
17548
17546
5423
2768
20352
21722
22088
1768
16233
15996
16228
33161
5597
6039
5228
17564
29307
34858
16229
2657
20409
21628
21625
78
5962
5961
5965
27814
5602
28737
14487
16234
21004
14555
5653
5059
32666
32380
34064
33157
17581
4133
17301
29797
17336
3262
24685
24652
24686
1486
14566
14572
14571
1664
15625
6597
15624
14275
5439
1998
17408
14273
17405
17220
17218
17
5424
5560
5558
5561
3259
24645
24601
24668
30138
6640
1969
17248
17247
17245
15626
15788
14488
32413
14498
6180
141
6431
6432
6430
5647
22089
3260
24659
24674
24676
1413
14185
14189
14191
17544
17407
14499
1474
14502
6270
14495
33197
3755
21107
27466
21113
5600
16231
17547
1741
16066
5895
16068
16070
4109
17480
17379
29694
3762
17496
17543
27531
14575
3764
17259
27542
17345
14504
1673
15551
15678
15676
89
6036
6038
6035
16071
28744
14559
2846
17225
14298
22337
28745
17569
15675
31918
19705
1713
15910
15912
15914
15638
15911
33938
17246
17249
16232
5963
28736
20335
1790
16347
16351
16350
17566
14557
19701
27467
28640
17257
17306
14505
24671
33780
24602
28378
15622
1970
17255
17253
17251
24669
15908
16265
33172
1734
16019
16025
16024
19709
27529
5964
34636
151
6500
6498
6501
16021
17252
24687
17226
27549
32780
6277
15677
20029
174
6646
6649
6650
15822
27547
16
5547
5550
5553
21002
1435
14292
14293
14291
27526
28742
1657
15580
15575
15579
6271
27548
15913
1750
5599
15994
16126
16122
79
5969
5970
5972
34011
6641
16084
27468
20031
29796
6047
6637
24610
24677
75
5942
5933
5944
67
5886
5891
5887
6433
21626
1432
14281
14272
14278
16349
1950
17160
5559
17159
24672
5884
5428
5437
17161
3905
28588
27780
28587
5346
32680
21727
33198
17567
16267
34010
16023
1930
6044
6053
17050
5935
5648
16123
6221
4573
29721
31914
32288
28589
3
5445
5448
5447
16125
92
6048
6063
6066
15577
6037
1934
17077
17074
17075
14279
5956
15581
32296
33160
5551
5450
17053
1402
6645
14146
14144
105
6172
6165
6168
166
6591
6593
6590
1959
17197
17199
17198
5305
17551
17482
28743
5943
1795
16230
16329
16362
28167
2014
17406
17501
17504
27820
28612
17549
19783
4025
28938
29304
29242
5238
17221
17297
30145
5431
2491
20668
20672
20667
6428
22335
2009
17376
17471
17469
3858
14190
17219
28265
6173
6067
6595
1718
15787
15888
15928
16124
15915
29
5645
5661
5658
28262
3265
24612
24646
24695
6169
28748
16067
17250
6651
32293
17051
5957
17052
27530
6594
15623
22087
1323
13683
13679
13680
1320
13657
13663
13656
5960
6648
27543
6499
17502
17503
118
6268
6286
6285
1942
5436
17108
17107
130
6041
6383
6174
5959
20334
5971
1322
13670
13671
13674
16069
14501
20333
13662
13655
52
5549
5557
5794
5888
41
5425
5432
5753
5556
28171
14573
4042
17254
17307
29376
6280
1482
5596
14551
14546
29695
13681
13678
1318
13641
13645
13643
1767
16226
16220
16223
5941
1698
15821
15830
15828
17104
110
6209
6216
6213
6049
6382
6427
20673
5655
1470
14479
6218
14484
5656
2017
17522
17521
17524
5793
15578
4110
29697
29699
29698
17470
17474
1690
15782
15778
15783
28590
142
6439
6437
6438
13642
2626
21001
21464
21468
32783
28377
6212
5313
27822
32668
34869
1949
17157
17152
17155
27465
29798
1938
17092
6054
6064
17520
17076
5449
5890
14147
6283
21
5594
5591
5588
1317
13637
13635
13633
16121
27545
14552
24688
1936
6429
17083
17084
15674
17048
28264
16222
29303
2638
19775
19612
21528
1775
16264
16272
16270
4038
29363
28605
29361
6281
19774
17106
6065
17156
17158
15780
1433
14287
14277
14283
6062
5968
17049
16022
17047
5446
5554
4640
21372
32629
27536
6436
6426
24666
1653
15549
15545
15548
20670
13669
13677
32297
5444
5593
16225
16227
1677
15699
15702
15700
21462
131
6166
6175
6388
14285
5659
17073
4903
31917
33777
33776
21627
13668
3254
24599
24627
24633
31938
17090
15831
1992
14145
17373
17369
13660
42
5433
5756
5751
15576
1745
16090
16095
16093
6380
1754
16020
16146
16145
5752
19708
4764
17568
33147
27528
1319
13647
13652
13651
29360
13646
5589
17154
2018
17500
17526
17527
5958
6034
13639
6210
3255
24643
24608
24640
14547
13632
1786
16065
16326
16323
17091
24626
29375
140
6381
6050
6424
1296
13526
13528
13527
21465
104
6157
6159
6164
1313
13617
13615
13616
5442
5755
14576
15704
21463
1709
15621
15887
15885
5592
3924
27525
28711
28708
1929
17046
6170
17045
5945
5885
1946
17136
5552
17135
6425
6061
5792
6211
5657
13640
14481
14482
17132
5940
15697
6161
24637
17523
6215
20330
16325
32627
14574
15547
34574
17131
2558
20028
21088
21094
27464
17371
29364
2563
14280
21123
21106
32630
80
5975
5966
5977
15550
6592
6496
1321
13664
13665
13667
13653
2326
19363
19368
19360
6386
17043
3929
28733
28727
28730
1799
16271
16373
16348
14550
16096
1401
6644
14143
14141
17529
17081
17109
6284
6282
16221
3807
27886
20033
27879
1730
5590
15988
15993
6387
15990
16143
14483
15779
1722
15909
15942
15940
5399
21629
28380
29700
16328
6502
32294
1945
17128
5967
17126
5280
17525
17550
34857
2659
21640
19776
21638
4021
17505
27527
29270
4619
32531
24670
32530
4
5441
5455
5454
4532
27815
28606
32076
15
5541
5543
5538
1668
6647
15644
15647
3261
24679
24611
24678
15781
6162
6171
5453
32074
24675
15829
14549
17519
21121
17103
165
6585
6582
6588
5889
16147
6385
1939
6497
17082
17093
5976
24636
13654
15991
15703
17044
32535
17089
21093
16092
6214
14142
29359
28165
15701
17042
15646
17473
34880
15784
119
6279
6288
6293
14286
17094
20666
4051
29416
13650
29414
3739
27356
27348
27351
13661
88
6032
6029
6030
5660
17129
1999
14284
17410
17413
6027
6026
16224
143
6434
6442
6444
13634
5546
17095
24638
93
6059
6070
6073
4036
13684
22336
27544
1314
13622
13614
13619
13676
43
5443
5758
5754
24635
17528
5974
4639
16374
16273
27818
21526
16148
28731
33148
15992
1307
13525
13586
13583
5410
17475
29696
34888
28709
27884
5760
139
6060
6422
6420
20331
66
5877
5876
5882
6584
17127
6296
32626
32625
24696
6423
16375
3948
5544
5555
28586
4948
33158
28170
34007
14503
6163
51
5789
5548
5788
5545
76
5939
5952
5949
5016
33937
34395
34009
17414
175
6643
6659
6654
3316
24982
13644
13649
13636
5452
3946
13675
27541
28836
4108
14480
29690
29689
30
5654
5663
5668
1927
6435
17031
17030
17137
6069
2008
17464
17468
17462
21091
15943
150
6495
6490
6494
1699
15827
15837
15834
19367
15886
6587
17463
15698
3306
24942
13666
13672
13659
21096
24632
132
6391
6167
6384
21122
6655
29288
19366
21466
33778
6294
27349
20
5586
5578
5581
14548
6443
5577
5580
17374
5880
32072
24641
33159
28846
17029
5539
29692
5368
28591
20674
34896
5878
28833
6291
33171
34015
5791
5540
6158
6392
16324
4916
29362
32779
33842
6657
21092
1766
16212
16219
16214
15648
13588
4531
29358
32068
32064
4811
17472
33239
33238
17411
24644
34392
1957
17134
17153
17190
28834
17412
1925
17018
17019
17021
1776
16269
16278
16276
5947
24979
6492
3317
13673
13682
24984
16144
109
6203
6200
6205
32532
6202
6207
16216
4221
13638
16327
28263
2551
19703
21051
21054
6028
6493
2005
17446
17449
17445
15836
28844
33240
21637
2285
18989
18990
18997
13623
6441
1689
15546
15773
15777
6033
5587
15835
15941
24681
5669
5666
21124
5583
4202
27546
21467
29302
6072
28847
6660
6421
27887
3303
24926
13648
13658
17032
15989
1951
17105
17164
17124
6297
24940
5
5451
5461
5465
21527
1928
17039
17035
17041
13585
3263
24628
24684
24691
5950
17191
6071
20671
5759
1791
16356
16091
16352
2003
17438
17434
17437
5584
17467
28838
3808
27891
27894
27893
33846
32073
1475
6160
14507
14500
27878
16355
27882
27350
17447
16215
5458
4931
32295
33170
33921
29351
13587
19362
16277
24943
32069
24630
5883
17020
15776
28845
15775
17130
17036
18996
17192
27354
3253
24624
24618
24620
17016
6289
24983
19361
24981
17432
17433
2004
17370
17444
17440
6491
5464
5951
16094
16275
13621
1400
14138
6653
14139
5200
17033
27469
28712
1672
6204
15544
15673
1487
5542
14581
5664
94
6079
6082
6075
1714
15645
15916
15919
28734
24939
32534
21126
17439
17443
3264
24673
24639
24692
14580
6586
17409
14
5533
5531
5536
32066
103
6149
6154
6150
15833
15918
24682
15670
6155
24923
6068
6081
1658
15587
15582
15584
24924
6445
2780
6031
20669
22121
6290
1749
16119
5582
15987
16353
81
5973
5979
5982
1956
17188
5790
17133
4641
32292
32634
32631
1735
16030
16026
16028
3268
24629
24708
24667
17165
4638
32071
32624
32622
16117
5665
1434
14289
14282
14288
6077
6080
4943
21639
21529
32781
21635
22120
18995
34012
3746
27404
6292
27402
5462
5457
6206
17186
17038
1926
6390
17023
17025
4031
6295
29287
29329
1777
16283
16274
16281
33920
17022
1700
15832
15843
15842
4574
24642
32298
28732
32067
33845
27890
24689
18993
5534
29290
15671
16218
6152
14582
5983
17448
5466
3851
6658
28218
17372
24619
24621
17435
4205
30067
17466
30064
16280
4952
24634
34036
32533
3922
28695
5667
28693
17189
27353
87
6025
6019
6021
27883
15839
50
5532
5783
5787
2470
13584
20524
20527
15585
14140
5785
1682
15734
6656
15643
27892
32301
1315
13618
13627
13628
1306
13581
13576
13580
6153
17436
16029
17441
1708
15881
6583
15882
5411
33779
6083
6208
32632
108
6195
6193
6190
27400
2532
20329
20938
20937
17465
6023
4028
17415
29286
21125
15586
16282
15774
17028
15728
32075
32623
1759
5948
16089
16173
32300
30068
15917
1785
16319
5879
16322
31
5662
5675
5672
3273
5881
13620
24731
4037
5585
29352
24941
17442
15841
14508
33844
16354
14579
33843
20529
5537
44
5757
5459
5762
6197
32635
138
6076
6416
6415
29693
16213
149
6486
6488
6487
3753
27450
27446
27448
17187
14290
144
6440
6454
6448
27888
16171
16118
27401
4788
6156
28710
29289
4942
32628
33982
33156
1258
13328
13325
13324
6451
28835
5535
1954
17178
17177
17181
28699
33186
29316
13625
1952
17168
17125
17162
6419
4130
28837
24985
29350
28694
24925
6020
5362
24944
24986
28839
4506
31929
15672
28729
15840
4217
16217
24980
29415
16032
5786
13577
1937
17034
17017
17086
18991
15730
5980
5674
34035
2731
21966
19364
21089
5981
2839
21636
22312
22118
1481
14539
5460
5579
176
6663
6652
6665
133
6151
6389
6394
2767
19365
22086
21052
24693
5377
6589
24694
28735
16172
5384
5467
28840
30060
1253
13287
13289
13292
28217
16120
1688
15770
15669
15768
120
6303
6287
6299
29782
4462
24631
31666
24707
6302
6300
13290
22084
33978
13329
14578
24927
31933
6417
6447
17027
4200
30055
22119
30053
3298
13626
24899
24902
13330
15732
14509
13582
4578
21095
17040
29691
19
5576
5571
5575
24680
17179
65
5870
5875
5873
30132
27880
5872
2320
19314
19316
19313
5671
6194
2838
21090
6489
17037
1256
13311
13310
13314
5572
1255
13302
13303
13306
4580
27881
32339
32334
5574
6024
1259
13332
13335
13333
4577
16031
32070
32315
77
5946
5954
5955
15884
5062
24625
32536
24683
3935
5463
28758
17163
16175
31668
5676
1469
14478
6078
6201
18998
29330
27447
34014
1201
13032
13034
13031
164
6580
6577
6581
31931
1257
13319
13320
13322
15769
6664
1397
14121
14120
14122
5763
22314
24622
3300
24909
24913
24911
4932
27885
32633
33925
29315
29357
14545
17180
20528
13305
14477
95
6086
6074
6090
6092
6191
2851
18994
21053
22353
28760
20940
2798
6452
21120
22187
29788
29787
29353
22310
32317
1755
16149
16027
16153
24729
22185
27352
1778
16279
16289
16285
33918
1955
5784
17182
17183
13
5522
5525
5528
32316
1252
6661
13283
13282
1701
15838
15847
15845
1678
15583
15707
15705
14126
6579
32322
17088
5524
13293
16321
32303
28697
21964
22311
21968
13315
17176
13301
17167
17166
1391
14081
14080
14083
13331
102
6140
6145
6141
15772
4776
14583
27449
32065
24901
1765
16116
16209
16211
13323
6301
33979
22083
24897
13279
13318
3289
24825
24823
24828
15708
1390
14072
14074
14071
13579
24912
19315
16170
6
5456
5473
5469
19311
1729
5573
15982
15984
6148
6143
14540
13309
15727
3925
6418
28713
17085
28698
1396
14112
14113
14114
33919
32302
1316
13624
13631
13630
13030
1254
13284
13299
13296
13295
16152
13033
31930
45
5761
5767
5766
21965
4209
24690
16174
27889
5475
5673
121
6298
6306
6312
14541
31670
13288
33926
1652
6192
15541
15543
6087
5471
5527
14544
16150
30093
30092
33167
6091
17185
16210
33168
30054
6089
15706
4012
17026
6453
29240
2559
21102
6022
21098
22085
1393
14094
14095
14097
32336
86
6018
6013
6015
6311
148
6483
6477
6476
14125
3770
5874
24730
27597
32
5670
5678
5682
15542
28715
22186
24831
15985
32337
16320
1398
5953
14129
14131
5530
4810
30059
28759
33237
1395
14106
14105
14107
24822
82
5987
5978
5986
6315
4539
24623
31665
32098
15983
32104
32102
32100
22313
20530
17169
1389
6578
14064
14067
1399
6662
14133
14136
24900
14124
29785
29238
1941
6146
6395
17024
6305
6309
13281
49
5523
5779
5781
6485
6480
5470
1948
17144
17145
17147
21100
5251
15709
27403
30066
33923
13308
4111
15883
29708
28728
1392
14090
14087
14089
15771
31934
22184
14068
13286
14075
1943
17113
17117
17112
6198
2356
18988
19640
19636
22354
5132
27355
33848
33988
4581
14476
32341
32347
14110
5765
29704
27596
34393
14475
6196
18
5562
5568
5566
153
6514
6517
6511
5684
5681
5189
13294
15733
30065
16286
1370
13629
13944
13943
137
6413
6410
6412
6016
13317
6014
14077
22352
29702
5474
1305
13575
13571
13573
4463
31674
31672
31673
6450
17100
5564
13307
13300
3035
13321
23431
13327
13313
14132
15849
15848
14085
14543
3293
24859
24865
24864
107
6181
6187
6185
23434
14060
24858
6147
16151
1476
6144
14513
14506
24821
3814
17184
27939
27445
34037
32343
3919
28681
27877
28671
6085
32318
16288
1488
14577
14589
14587
2701
21830
21831
21832
2742
13578
20525
22004
14102
5529
134
6142
6393
6398
1369
5871
13940
13941
1203
13029
13042
13046
61
5847
5849
5846
160
6556
6553
6554
28701
6316
5679
5526
54
5808
5810
5805
32320
30091
6310
4902
32299
33770
33766
5110
5989
17170
20531
28677
6512
6307
34827
21967
13044
4500
14542
29354
31898
27941
21103
13945
1310
13598
13599
13597
17149
3013
13326
23367
13334
14117
1671
15540
15663
15667
4610
20939
27347
32483
14108
33235
145
6446
6459
6460
14096
23370
1931
6411
17057
17055
1260
13285
13280
13337
2538
19312
20936
20971
29783
1748
16113
15981
16111
6183
6188
5782
13572
7
5477
5468
5482
4016
29267
29262
29264
17115
1736
5680
16038
16034
19642
2464
20490
20489
20493
22183
1480
6088
14474
14534
4208
17087
28714
30086
4668
29355
15986
30134
21834
1649
6513
15527
15523
5569
1761
16187
16185
16190
2342
19310
19521
19520
1659
15593
15589
15590
5064
28700
33169
33847
1935
6449
17079
17078
5806
1394
14098
14100
14101
14091
3027
15729
13291
14135
33987
31932
3308
24951
24910
24949
13938
5485
6484
14532
4982
31669
34034
34191
5570
33983
6456
6186
31896
14073
23414
1492
5472
14538
14610
1725
15957
15962
15959
16037
5481
21833
17058
1648
15513
15519
15515
4933
6199
31935
33922
6308
16035
6481
6189
13298
24826
31677
96
6094
6084
6098
2765
5988
22079
20526
17150
15525
4576
5683
28696
32307
2797
6017
22182
17114
2985
13312
13304
23243
14511
1947
17143
5985
17139
21101
101
6133
6132
6136
33769
22315
6478
1944
5780
17120
17122
13045
13574
5848
14128
13297
23241
28673
28674
33767
21099
4718
24830
32989
29356
1726
15966
5807
15968
14535
16188
17110
5111
29786
20532
33236
14127
1684
15745
15743
15746
14061
34583
6137
17138
14066
15665
23365
29260
3311
24862
24960
24898
13338
19641
12
5514
5520
5516
24866
6097
6096
32485
14088
32344
16115
3917
6558
15731
14137
24829
23366
14608
5383
14076
14084
32304
14585
5204
24903
30135
27598
4120
6314
13316
29748
32313
31895
5565
6184
16110
34195
13601
13946
2549
18992
21041
21043
31894
21104
5480
22005
5567
30094
22180
14533
14588
32309
5358
16039
5685
32319
23433
46
5764
5478
5769
1702
15591
15854
15844
14082
4711
31667
32953
32099
15965
29784
34728
29263
6134
6555
15517
24961
83
5984
5991
5998
20491
14109
14115
19516
29709
85
6007
6011
6006
48
5519
5776
5515
5775
2521
6457
20866
20868
4117
6313
29739
23432
31675
14116
23413
28662
6099
2394
19950
19952
19949
29706
5995
5017
34013
32103
34391
1779
16036
16292
16284
5517
22002
15668
4113
15846
29717
29715
1803
14086
14092
16392
31678
13600
4112
6138
6399
17101
19522
20970
14512
20492
15522
1933
17071
6479
17054
23237
33980
31897
1932
6397
17062
17065
15592
15662
22080
32765
24950
23240
32312
32314
5295
6414
6101
17059
5286
17102
17080
29241
29236
29235
19638
32952
22001
29269
6461
31671
16390
136
6405
6406
6409
15518
32482
23238
15851
27943
1808
16412
5809
13939
13942
1263
13350
13336
13348
1806
14119
14130
16406
17066
17060
4887
17123
17118
27942
4010
29226
17148
29224
4674
14536
32342
32321
4461
16287
31658
30090
19517
23368
20488
1807
16409
14063
14070
19947
5483
21042
20867
146
6455
6470
6465
15963
135
6404
6396
6401
1953
17111
17175
17119
33768
40
5563
5746
5743
129
6182
6377
6374
29258
1311
13603
13596
13607
15852
1804
14099
14103
16394
14093
17142
5275
5486
17151
5771
1940
17072
17056
17099
17067
33
5677
5693
5688
29711
122
6304
6324
6319
30089
13043
15516
5850
15961
30087
28670
15967
6407
16389
1961
17146
5770
17207
5748
28675
5521
5778
5745
6378
16294
17206
17141
1802
16387
14069
14078
4034
6516
14065
15524
23239
29737
6463
4505
15666
29701
31920
4023
6008
17174
6012
17116
20871
19945
6376
5687
5691
5997
1304
13566
13569
13568
16291
161
6552
6560
6563
19637
32988
4542
14609
31893
32116
100
6130
6126
6125
22181
3761
24863
27516
24959
1960
5777
17121
17204
15960
6318
6323
16411
1800
6557
16377
14134
97
6093
6109
6104
13352
13606
27938
16416
6127
3860
16189
27595
28276
1805
14104
14111
16402
5484
14079
3863
14586
27937
28299
6103
31924
16403
14118
27519
20972
147
2628
6471
6482
6474
6472
17068
17172
29265
4667
16114
16191
30133
24827
32762
32484
1958
17196
5992
17140
57
5804
5826
5824
21477
28281
29297
29335
62
5845
5854
5856
28660
29227
6100
29712
29228
17194
4797
14514
6139
29239
4103
17064
6403
6402
17061
17098
33771
4041
6469
17070
6464
6462
6475
17063
6466
17097
6408
6400
16397
28296
156
6510
6534
6531
19951
84
5999
6000
6005
2673
21702
21097
21704
2417
5993
20142
20137
20486
29671
5063
32338
33924
33981
27524
1489
14584
5518
14591
11
5511
5510
5513
32120
8
5476
5490
5488
31923
1737
16033
16044
16041
16388
13604
1660
15595
15588
15598
6107
15969
29674
32954
9
47
5497
5492
5493
5774
5768
6562
29710
28303
13349
3906
22003
28593
24948
16384
31662
32345
33927
1801
6515
14062
16381
1740
5744
16059
16063
5689
5749
16385
28678
6320
2582
6467
6458
21229
16408
10
5507
5773
5503
5504
5772
15747
5343
15748
15526
29707
29223
29374
1663
6375
15614
15618
5747
21707
3921
17195
5996
5990
6001
6004
5496
17200
3811
27919
14123
27914
17201
17193
17205
29740
3304
24824
24930
24860
17171
17173
28599
16407
6108
5501
31664
27520
17202
5206
21044
32340
33986
14595
29673
16404
24928
24931
5509
3909
17069
17096
28621
29372
1685
15514
15749
15752
16393
16414
20865
28615
2898
22741
22748
22743
20138
20143
5349
6564
15520
28663
5125
6379
32346
14537
1479
6095
14527
14530
16383
1204
13048
13041
13049
33200
22745
2910
22845
22837
22840
21476
34192
98
6116
6112
6111
27518
28686
19519
28596
16062
20136
5141
33984
34394
34760
19643
33772
28278
15617
6533
4214
20869
23369
29237
22838
22844
5690
20870
32787
99
6119
6118
6124
3302
24922
13605
24920
6102
6117
29738
1762
15958
16192
16195
32115
29718
19954
6123
28613
28687
3046
13351
23466
23412
33928
6131
5502
3310
24861
24955
24954
5487
1491
14605
5479
14602
2333
19435
19436
19431
27515
29340
1707
15877
15664
15744
5858
16380
22746
21705
1784
16318
16112
16186
1477
6135
14518
14510
14592
5512
5827
5498
5223
28680
20494
30088
14607
5489
5018
31676
32311
34402
4534
16410
32083
29703
5491
31928
14603
2784
6003
6010
22132
1651
15521
15539
15533
29259
28679
28692
1669
6561
15512
15654
2406
6009
20048
20050
34196
1746
16101
5855
15956
15754
6106
28614
6105
32487
13570
21475
16400
19430
2606
6468
21368
6473
15616
6532
15536
34193
1312
13602
13613
13609
4728
5692
32308
33032
16061
16379
34582
34405
1728
15964
15978
15975
5178
6325
14515
29741
4701
19953
28676
32335
5825
16399
1717
15751
15850
15925
34
5686
5695
5699
39
5734
5736
5739
4963
5750
16064
32766
32788
24958
2548
5994
6002
21036
24919
16043
16293
30121
28618
6110
32987
16376
27915
32080
15619
15649
16097
6128
13611
21370
5212
29716
15853
29747
4605
27940
32453
29296
21478
31660
24929
16386
162
6559
6572
6570
4467
31702
17203
29295
34580
29338
128
6368
6372
6366
15599
23242
15880
13051
3794
27774
6321
27773
31663
15535
3852
6322
28219
15597
123
6317
6327
6332
4540
29261
16391
32097
14531
21037
155
6528
6524
6529
14594
22744
6569
5508
5505
6115
5495
21225
21228
34397
32911
16395
28298
5735
32764
4020
29285
29278
29279
33199
6527
21706
32456
16197
1262
13346
13344
13347
15977
16316
32910
20134
5696
1794
16290
16042
16361
22131
2508
20133
20791
20789
31926
27523
19439
28297
16194
2489
19635
20657
20653
21364
4939
33961
32310
33958
20047
2597
21318
19639
21039
33774
32119
5701
5697
20045
5737
5742
28620
28689
20790
13567
20139
15927
6369
14529
6122
6129
2564
19518
20969
21130
29283
1303
13565
13559
13563
5499
6367
15596
32486
29277
6329
6331
1681
15615
15723
15724
1376
13982
13986
13983
4116
5857
29733
16405
3294
24873
24869
24867
14519
3809
16413
13612
27900
1758
16060
16165
16168
6328
2752
19948
22040
21040
32107
1366
5823
13920
13923
34752
16382
28594
22842
4974
32101
16398
32951
63
5851
5863
5864
16100
32481
56
4201
5817
5820
5821
5828
15979
4729
28661
33035
29714
4454
15753
29713
31614
3014
23364
22839
23374
6114
33030
21317
4541
28690
32113
29222
27895
19438
4901
29705
33760
31922
14604
15926
21127
21035
2880
22590
22586
22585
23376
14593
22749
24956
27514
27772
24921
16378
28275
5500
33765
29339
4617
16401
32520
32517
27779
1478
6121
6113
14524
16169
5738
1387
6566
14055
14048
24871
15653
1756
16040
16158
16155
16396
5698
32079
23467
1374
13969
13970
13973
6120
14517
13987
22747
28300
28224
31701
13050
32110
21227
1383
5852
14031
14027
1372
6526
13954
13957
4465
16102
16196
31659
13968
14522
3757
6571
15652
27483
1365
5819
5822
13916
21367
4124
15537
6530
29336
1384
5853
5860
14036
1205
13047
13056
13054
22592
33957
1382
14021
14024
14022
21366
1679
15594
15712
15711
15924
5194
15620
15726
31927
6330
1386
14043
13345
14041
34146
28222
4503
15876
15538
31912
2448
19515
20386
20382
1715
15922
15651
15750
6373
6370
28302
2636
20487
21474
21518
27778
27776
15920
20655
13988
34751
22134
3854
28243
28234
28239
20053
13924
13560
1792
16358
16099
16193
29337
31688
27920
16357
16360
1378
14000
13998
13997
154
6518
6520
6522
14520
5154
33775
33985
34581
1650
6568
15528
15530
3735
14528
27315
27312
1727
5862
15970
15973
27913
31612
55
5813
5816
5811
21315
13562
19433
22843
15879
14523
1373
13966
13961
13965
34398
2403
20019
20020
20026
1368
13608
13936
13932
32521
4599
16317
15980
28277
34403
22039
32424
27318
20052
1687
15534
15765
15763
32106
1490
5506
5494
14598
27916
31610
4918
20141
29225
32117
14051
13958
16166
20025
14590
1388
163
14056
6567
6565
6575
6573
31700
1764
15976
16207
16205
28241
13953
20654
4538
28616
29373
29672
27480
64
5869
5859
5867
27321
4960
32118
34082
32986
4712
15725
15878
31921
13913
32082
29268
14026
124
6326
6334
6340
14597
14600
14516
22589
1703
15713
15710
15859
15857
23373
16157
14053
15856
1380
14009
14012
14010
3288
24818
24814
24816
6337
6336
29734
1261
13339
13343
13341
1381
14017
14013
14014
14606
5741
21038
28691
16163
1375
13975
13976
13979
13967
29284
4940
5702
14596
28301
1780
16297
16154
16299
1371
6519
6525
13951
28598
28220
4579
19437
32332
28672
29759
1364
5812
5818
13912
4656
20140
32114
32715
14030
14020
1686
15760
15650
15756
6371
16296
14058
1385
5861
5865
14039
1670
15532
6521
15658
14045
13960
5082
31925
33773
34637
1747
5814
16107
15974
15721
15767
32330
32328
32454
22583
32111
127
6360
6356
6364
15529
15757
4926
27521
24932
32985
1367
13929
13926
13927
1763
15971
16098
16201
3296
13610
24882
24885
20381
33034
16202
16199
29281
20384
4962
28280
27522
32763
33028
4769
16415
27898
28279
32324
13925
6358
6361
3291
24845
24844
24848
1377
13994
13990
13991
13981
15656
15660
2654
19434
21617
19946
13947
33962
31910
4207
5700
30080
16156
4658
32728
16167
32724
5740
13909
30056
14047
14521
14033
21129
28595
6339
16108
16104
13053
34092
35
5694
5704
5708
13055
32112
33889
34579
5707
5706
32455
38
5726
5725
5730
14525
5728
5724
5731
14040
21369
5732
2806
20049
21703
22215
14018
32960
27320
2337
19468
19475
19467
28242
32518
125
6333
6343
6348
32955
31909
1783
16312
16164
16204
1662
6359
15608
15612
21614
13934
1308
13591
13592
13590
27481
5028
13989
29266
32081
13931
1781
16301
16295
16303
6344
13919
24874
27899
14008
6357
21316
1379
14002
14003
14006
2410
20084
20081
20078
1706
15875
15722
15762
33763
16198
2713
21226
21884
21881
2684
21034
21754
21756
31703
3804
13964
27852
27847
32109
14601
32423
20077
4561
24957
27517
27897
33963
19472
30077
14001
13996
14007
5327
15860
15714
31613
4212
15858
30110
15921
3005
23337
13342
14042
4206
28688
22133
30069
1738
16045
16047
16049
16298
32108
34640
4215
6576
15531
14059
1739
5727
16054
16057
6341
28225
4972
31661
31690
33029
34135
27918
29736
32428
4727
1793
16109
16208
16105
16359
16206
5705
27848
13956
4533
1716
15661
15766
15657
15923
15764
16056
16313
30058
28238
1661
15606
15600
15602
15610
15611
1704
15862
15855
15863
36
5703
5710
5716
22742
23339
15758
24843
34775
16311
16314
15873
15874
6335
1646
15504
6574
15499
4009
29215
5868
15972
53
3868
5795
5799
5802
5815
16106
5711
32726
30083
28334
28597
21365
15755
31908
4502
15659
6523
29758
33764
30071
5797
13911
1723
15949
5866
15945
152
6503
6507
6509
20385
27851
20051
157
6541
6536
6537
15759
27479
13952
27854
6505
32425
20021
3319
13564
24990
24870
15501
22038
32727
34814
13972
58
5835
5830
5831
14038
16048
16302
6538
16200
32426
20080
5027
34194
27921
34399
2610
21389
13561
20788
20656
21516
27478
30072
15947
32712
15603
15865
33853
33887
5832
13918
27313
1760
16103
16183
16179
5714
5712
20383
1683
15738
15655
15741
5326
6365
15613
34831
34638
24819
1782
16307
16306
16309
1724
15952
5798
15954
1705
15868
15867
15870
3036
22841
23436
23435
21758
4585
14526
27314
28617
15871
15609
34443
4468
14599
31704
31699
32077
13959
13980
13974
14052
1647
15507
15511
15506
126
6350
6355
6352
24820
6506
15510
5729
4695
14025
14032
27917
14019
3130
13910
13914
23980
37
5135
5720
5718
5723
16058
5733
3132
23988
14034
14037
4125
29760
27775
29764
3911
28636
6338
28629
29735
2668
21684
20135
21033
32958
31904
16178
19474
15737
159
3155
6547
6504
6508
15508
6550
16055
16310
16315
15953
16180
23371
5391
15735
15761
15742
15736
15866
15500
15505
33155
28335
29216
5719
5722
30113
24849
32714
3144
158
6539
6545
6535
15502
6543
6351
6354
6362
4917
27316
33851
28619
6347
30074
1680
15720
6353
15607
6345
15604
6349
29282
21757
27317
15872
15716
13995
30116
21615
22588
3143
59
15948
5834
5829
5837
5839
1757
5721
16053
16162
32522
34396
16160
5713
5717
16046
16052
3133
23990
14029
14035
60
4039
5841
5796
5803
15955
5844
29766
29280
22214
5715
5709
32731
32329
6342
33888
34442
28337
32094
3313
13593
24883
13935
5838
15944
5840
15950
31706
3087
13984
13992
23771
30117
4466
16159
16050
16304
16161
5180
28223
34815
31611
5836
15946
16181
1272
13340
13392
13393
31905
1206
13052
13059
13061
32961
30109
6346
15717
15601
15719
20046
13950
24069
1309
13594
13589
13595
32725
33026
3958
13930
13937
27896
31707
16300
16308
16177
16182
30127
20024
24813
23979
5801
4035
6544
15498
6546
15509
15503
6542
6551
20082
15739
28638
32216
4455
15715
15605
15864
15718
3148
6540
24051
14057
14049
4886
16203
16305
31689
32515
21388
30075
27850
27856
5152
30085
33031
31691
24030
3134
14011
14016
23995
14004
4611
21128
20658
32480
15869
15861
15740
16051
30079
3123
13921
13928
23952
16176
16184
32369
15951
5833
23987
3136
13999
14005
24004
13993
33966
34404
23375
28333
31709
30078
2904
22796
22740
22794
34081
3154
24067
13915
13922
30123
24886
5176
6363
34809
27319
24812
20083
21883
13058
24026
31693
34084
29344
32884
22591
30070
4812
14046
14054
33033
22584
2304
19175
19169
19171
24068
27482
4614
27777
28221
32501
34816
34813
34147
31624
34139
23985
24027
29349
31697
3070
14023
14028
23656
14015
3099
13949
13955
23843
31615
29221
13963
23841
3085
23756
13962
13971
24887
28633
24029
5843
32489
28901
21882
31625
34811
6549
3151
13395
14044
23338
21755
33762
30081
4944
28240
33996
33977
5065
32457
28304
33965
28235
31623
33959
32366
23992
21683
1302
13556
13558
13557
2594
19432
21298
21300
33998
19470
29219
29366
22791
13977
23760
23774
32326
24028
21517
19173
30124
14050
24059
24002
23994
34400
28631
23775
19168
31617
3122
13978
13985
23947
13933
23949
4600
13917
32430
30057
3061
5800
23580
5842
29343
21299
23340
31692
4456
31609
31632
31627
32490
4612
32323
32495
32491
29367
29341
30111
23986
32368
34136
23981
30115
31694
23654
23653
28236
32214
28630
29214
32213
23948
34639
3951
24872
24991
28592
24969
32096
32959
3092
13948
23801
23799
32422
1094
12406
12408
12405
23989
28632
28336
23768
23577
23579
2469
20518
20517
20521
19471
3045
23465
13060
23372
29342
23438
29218
31616
33022
28637
32713
28899
2371
19758
19760
19764
19761
23437
30112
24052
23652
32502
24050
2897
22734
22733
22736
32885
28861
33691
23753
23578
33997
33688
3323
24847
25004
24884
3110
6548
23896
23897
23464
20023
21616
22216
20387
23797
31631
3307
24815
24868
24947
2336
19462
19461
19464
23895
24066
29762
3781
27687
27682
27686
30076
29763
23767
19457
23755
4983
32078
31911
32956
23978
1093
12401
12399
12402
33761
22737
19174
31622
5048
32429
32729
33024
30122
27681
21390
12407
12410
19166
31907
2998
22587
23307
23306
27855
28339
3031
13394
23422
23336
27680
22795
33850
2535
20956
20380
20953
22793
1301
13555
13552
13551
34585
25003
24968
5050
32730
34537
33025
3315
24817
24976
24846
28634
34093
22790
34083
3080
23725
23724
23726
4945
24053
24031
30126
24945
24946
23727
19763
34094
2288
19025
19020
19022
19473
28860
4915
29368
28338
33023
34199
4937
32427
33154
33947
29347
5131
33960
34757
34401
31708
20522
4973
34144
32105
34140
4696
24003
23997
32516
23951
5009
32327
34350
34349
32888
2632
21498
21494
21497
34143
21297
31620
24975
23773
27683
29348
4884
29346
24070
31906
19026
31628
2524
20885
20890
20887
34352
4883
30114
30125
33672
22739
23423
5325
32333
27322
34641
23573
4888
30082
31705
33692
20079
28900
4885
27853
33682
33676
24978
3094
23811
23812
23814
5029
30084
33964
34447
1271
13388
13390
13386
23303
3055
23524
23525
23523
33242
1115
12400
12529
12404
33683
33684
2528
20910
20912
20909
33686
34138
34758
2608
21378
21374
21377
23772
23802
5015
31621
32957
34390
19465
5136
31698
33027
34767
23582
23982
19021
31695
29345
32434
31618
23900
34200
30073
32215
33852
4460
23842
27849
31653
32432
3075
23688
23689
23691
33697
34810
34387
19019
22735
4975
32519
34152
34145
2506
20773
20018
20778
32367
23899
4618
23996
23655
32514
34441
23520
20913
32431
33689
31696
23304
22792
32494
19759
23759
12531
32523
32493
19762
34532
34584
20779
20957
34159
34157
13391
13389
19469
33690
23758
5233
33890
34085
34095
19460
3290
24811
24835
24841
4900
28635
32365
32095
3073
23671
23675
23670
33670
23798
33840
28902
4946
29220
33999
32883
2827
13553
21387
22276
19167
1095
12412
12403
12415
23800
1207
13057
13066
13063
19757
20891
33886
3081
23731
23730
23734
23991
2323
19332
19337
19339
23993
27688
31619
23815
24836
34137
32716
3312
24967
24964
24962
23687
33949
34154
3141
24020
23769
24001
33687
33679
31629
3760
27505
27510
27506
32529
23305
22277
2688
19170
21771
20520
23686
33664
13067
4530
29217
29365
32058
34538
4464
31685
31679
31682
31656
21376
33759
33674
34444
12528
33696
33694
33695
29765
3299
24905
24904
24907
34003
23728
32524
21773
34540
32887
33673
23574
23735
27512
4457
23770
31639
23946
34198
23757
33995
33241
31654
27685
33678
23672
3320
24974
24994
24992
24839
31655
33841
4219
23950
30141
24065
27689
19463
32499
23527
2473
20076
19458
20555
13554
22275
23581
4697
28237
32896
32488
2940
22731
23035
23037
2397
19466
19980
19978
19975
33666
5142
32331
21499
33849
20889
21302
31626
3107
23651
23878
23880
3106
23650
23876
23875
4633
24977
32601
32212
33698
28898
28863
3821
25002
27987
27983
4735
20914
21301
32325
20551
19024
19333
2744
20774
20022
22014
34445
31684
13064
33681
34355
23034
12416
19334
3526
12409
12530
26101
33950
19973
3077
23699
23705
23701
31637
2829
22286
19172
20911
3056
23529
23531
23536
33757
32059
34446
34353
34197
24022
20776
27503
32889
1096
12419
12420
12422
20955
27509
31636
34004
2954
23110
13387
23106
33662
20523
12414
32492
23674
23105
23526
32526
3057
23546
23540
23542
34533
34776
31683
2671
21696
19023
20519
27511
21769
24833
33663
32602
2887
22652
22649
22646
2948
22732
23078
23077
23732
33060
19977
34141
23669
34005
34535
24840
24966
4616
23690
23898
32512
32891
24965
22651
32060
27513
4501
22738
31900
29761
3054
23512
23515
23517
27990
3121
23754
23942
23944
1270
13382
13383
13384
3850
23813
28215
28213
23521
23881
3067
23621
23629
23620
12411
24019
21774
24993
1300
13548
13546
13549
21379
28859
13065
23706
23874
24995
33059
33677
33989
30142
33990
19981
32511
33667
3119
23576
23936
23723
22648
3118
23935
23575
23729
12418
23539
20553
23528
32527
5042
31630
34508
32500
3751
20888
27433
27428
34155
23516
4423
21772
31426
28233
31634
32605
31680
23545
23538
2321
19324
19320
19319
20556
27427
19318
19323
23036
2295
19086
19081
19079
28214
2861
22412
22416
22414
34348
26102
1116
12527
12533
12534
23535
19083
27430
22647
34351
31429
32063
21697
23108
34006
28209
24963
23079
22012
31901
34389
24837
2424
20191
20194
20188
23934
22411
33668
23533
33758
32510
20557
23627
26100
2363
19698
19018
19695
23625
3066
23519
23612
23619
23514
3105
23107
13385
23810
27988
2762
20886
19336
22071
3847
23673
28188
24018
22650
5322
19340
20958
34587
23932
32895
27985
20195
19697
2474
19459
20558
20562
21695
4732
33042
24021
32886
5213
24842
24908
28862
22279
23033
23616
5006
32433
34331
33839
22285
4451
31597
23733
31595
19693
33057
31687
22408
31427
23537
33948
3112
23877
23522
23911
13550
4563
22278
19979
28858
4027
20777
22013
29309
28187
1097
12417
12427
12424
27432
28211
32892
27502
5197
33675
31657
34201
3062
23584
23589
23587
32604
20550
2772
22097
21375
22094
22415
5357
22015
23080
29767
1117
12532
12537
12539
23872
1208
13062
13070
13069
4458
31644
23704
31640
22417
3518
12413
26063
12421
33685
33671
19317
23622
3082
23668
23738
23737
31635
22070
1269
13381
13378
13379
22072
20193
19085
32229
23544
31428
2813
19338
20954
22237
30143
30139
31903
3051
23486
23485
23490
34332
19976
26062
19699
4657
32720
27684
32717
34388
23910
32225
3301
24915
24834
24917
1299
13545
13541
13543
34354
29313
23518
32228
2763
20552
22075
21496
31902
23615
32722
28216
12540
23933
31641
31643
2756
22054
19322
21495
5344
19088
20892
27690
2835
21770
22284
22301
1098
12429
12423
12432
2449
13547
20390
20392
23511
23739
22236
28189
4210
23534
30099
23703
3292
24854
24852
24855
29310
19696
30100
30096
33043
5153
34448
34586
34759
29314
12425
22653
32062
27437
5222
34768
34534
34539
2338
19478
19483
19479
5026
34002
34437
34435
23588
19972
20391
34851
32528
27436
31646
3297
24832
24888
24896
31598
12536
3083
23741
23742
23745
2834
20775
22011
22300
28191
4416
23879
31381
31378
33699
2888
22655
22659
22654
4961
33946
34091
34088
20563
23613
4669
20554
27507
32773
31686
32772
31594
20192
33700
2698
19321
21820
21818
3090
23513
23791
23790
23943
13542
32770
23482
1209
13068
13074
13073
23585
3321
13544
24998
24906
19084
22073
22051
3113
23543
23914
23623
22095
4987
33991
33680
34142
30103
30097
3103
23541
23702
23864
22409
19482
19481
2989
13380
23260
23104
31638
22096
27434
20190
2705
21851
19335
21855
21852
12430
12433
34153
20561
23909
4529
27986
32053
30140
13076
4679
32819
27508
32818
32603
19087
2298
19112
19111
19115
3098
23700
23530
23838
34788
32723
3920
23109
23873
28208
23489
3806
24838
27871
24916
34211
2893
22701
22645
22697
3129
23908
23617
23976
32814
4988
33058
34219
33992
27876
23626
23913
28682
34221
26103
24892
23793
3114
23532
23916
23917
27991
3510
26021
12538
26022
4966
33756
33665
34108
5008
34343
33693
34340
21816
1268
13376
13374
13375
21817
22074
5010
34347
34362
34356
4790
27989
24996
32600
34086
34342
34001
26064
31377
32897
3523
12426
26061
26086
12431
32055
23488
21853
2620
19694
21435
21437
24918
23840
23835
34333
32721
34148
19116
3079
23722
23510
23716
22661
19476
23744
31430
2477
20578
20582
20579
23262
2992
23274
23076
23272
4685
28212
32509
32842
19691
1298
13534
13533
13540
3128
23624
23971
23870
13538
33044
2399
13072
19995
19991
23862
24857
32226
2609
19974
21383
20389
21381
24889
24893
2891
22687
22644
22685
19994
19992
27431
32227
2643
20189
21558
21556
34215
22702
34158
22410
21819
4536
31899
32091
32089
2455
20434
19080
20431
4615
32507
28210
32505
22656
34112
24851
23837
34110
20432
20430
32767
30101
26024
19477
1099
12436
12428
12439
32769
4043
12541
24856
27984
27870
22052
3139
13377
23871
23261
23975
23718
13075
20577
22681
4994
32893
31431
33993
34090
29312
3853
23618
23743
28227
4459
23945
23792
31633
19113
34360
32054
4989
32061
34230
34000
34149
12435
26020
2831
20560
22291
22290
4676
23628
23915
32508
31384
30098
26087
23974
19114
21554
27435
34852
5043
32513
31645
33669
4514
27504
29311
31977
28192
26088
32771
28683
23271
3086
23586
23762
23736
22699
4756
31681
19700
32890
26023
23970
24013
23764
4871
23491
32525
23590
3004
22413
23335
22657
2655
20559
21619
21620
22660
28190
1118
12535
12543
12546
20581
22053
34344
19484
2570
19082
21158
21156
31593
2552
21060
20388
21059
34209
32718
32817
31642
28684
27873
23717
33189
23788
23918
4199
13539
30052
24997
31648
21384
23972
23912
32816
24894
34345
4736
21854
33064
27429
13535
34511
22683
34439
20429
21159
19993
3065
23484
23607
23610
2527
19692
20906
20576
1267
13372
13369
13371
27875
31976
12545
12438
34225
32504
3091
23614
23740
23796
28226
34339
19117
23609
19990
34217
29380
22686
23795
31380
2727
19480
21948
21436
23273
28232
29379
21559
23865
21055
33131
1100
12434
12445
12441
21438
20433
32844
3318
24891
24987
24914
31382
4737
31379
23977
32057
21618
3295
24850
24875
24881
22293
34222
32506
32090
22703
33603
20580
3309
24952
13537
24953
3108
23836
23882
23885
24890
22704
2391
19929
19928
19930
23333
4436
28186
31513
31510
33062
33065
27868
22292
3314
24971
12544
24853
32052
31975
20907
31649
34220
21950
19109
4429
23839
31468
23863
2279
18934
18938
18935
23721
28229
5242
31647
30104
34834
20908
21385
1210
13071
13080
13079
21057
3499
25950
25945
25946
30095
23765
5263
24014
23973
28685
24989
34107
25947
23263
3007
23344
22700
23259
32796
32795
34227
12444
13373
1119
12550
12542
12551
18939
4469
27869
31715
31710
23334
34111
3064
23583
23483
23604
33063
2593
21296
21293
21292
3052
23499
23495
23496
24973
24877
23763
2741
21380
21998
21999
34232
3498
25941
12437
25938
21294
4996
32894
34151
34266
24876
21555
4995
33994
34150
34256
2312
19243
19248
19247
3109
23487
23606
23891
1297
13531
13532
13529
21058
23611
12442
12548
1101
12448
12450
12447
3093
23804
23805
23809
23888
21155
3023
23270
22658
23401
19926
34210
3068
23632
23634
23639
3050
23474
23476
23481
23330
21949
31514
34257
3124
23953
23794
23955
31470
23720
32797
2390
19920
19915
19921
19931
3071
23662
23658
23659
12440
19918
32843
19245
28231
20904
31979
1266
13366
13362
13368
34228
2567
20428
21145
21142
25948
23601
23887
4755
31596
32051
33127
23956
23608
2919
22899
22902
22898
22904
21621
34216
23345
13370
30050
31509
4275
30356
21557
30352
26089
2793
13530
13536
22167
21382
31713
34512
23894
423
8360
8359
8365
33129
3117
23719
23931
23789
19924
13078
21144
23808
33066
21056
31474
25940
18933
18937
23475
13365
34218
23631
3738
23332
27346
27340
2962
22682
22698
23147
28230
23492
33061
4637
24988
24895
27872
3507
12549
26004
26001
30355
34223
3037
23331
22684
23439
4418
21157
31400
31393
23603
23660
31512
27341
30051
23498
23493
5139
34156
28193
34438
34264
23893
31399
19923
32845
422
8357
8352
8354
13363
34361
33130
23477
25942
25944
25952
1102
12452
12453
12457
22903
12446
19246
32620
31652
27345
4757
21295
32768
33132
23150
23145
2907
22816
22820
22815
2466
20506
20502
20501
31472
31516
3322
24970
24878
25001
2516
20829
20834
20828
4136
12552
24972
29377
5049
21386
32719
34089
19932
32813
20505
29805
3531
12443
26124
12449
3059
23557
23563
23558
424
8367
8368
8370
2472
19110
20545
20546
4498
29378
31881
31877
2911
22848
22846
22853
24880
23146
1211
13077
13084
13082
31395
19244
8353
33133
8366
8351
31884
3096
23829
23605
23825
25939
5007
32056
34087
34330
34358
23930
19925
34536
3149
13367
23806
24056
21143
2475
20565
20567
20568
22821
22818
25949
23823
3089
23602
23786
23761
19919
2361
19676
19682
19679
23637
2379
19828
19829
19831
22168
3732
27295
23807
27293
22000
19675
20832
1120
12547
12554
12558
34338
33604
20569
3137
23478
24008
23884
389
8109
8107
8106
23636
23560
26005
352
7895
7894
7896
33126
8358
2313
19252
19255
19253
18931
12455
22819
31711
5052
30102
23889
31651
27294
25000
34258
3072
23494
23657
23666
3127
23661
23883
23968
34214
22813
33128
19830
19916
2555
21074
18932
21068
4913
27874
33835
33188
22852
22901
24054
13083
5005
31383
34326
33602
27339
34265
31714
3877
8356
22166
28391
2847
21947
22340
22339
3745
27397
23954
27392
3044
22900
13364
23462
8104
31473
5351
31517
23766
33605
4433
23892
31495
31376
26126
34551
3069
23600
23643
23648
29804
3505
25943
25992
25989
3116
23633
23924
23803
12556
34262
25936
31880
31497
31398
8364
31397
12555
26006
20831
28392
12456
4046
24879
29393
24999
3142
23497
24023
23635
23459
23787
20541
30357
22850
2863
22427
22432
22436
23663
4435
31507
20905
31505
23564
34259
2372
19242
19773
19769
21073
23923
34226
29392
21071
4427
23480
23929
31457
4419
31402
31403
31404
2681
19927
21745
21291
2997
23144
23301
23300
20548
22430
23641
19765
4652
32691
32503
32690
23559
20503
34224
5302
23640
31475
32798
22814
32846
34513
23665
23826
2435
20286
20281
20283
19256
19254
1265
13361
13359
13360
20504
31712
23149
32621
23460
19832
384
7893
8073
8071
19680
4274
23886
24006
30347
27296
19827
33067
24007
5011
31650
34212
34365
4908
31978
33806
32815
31885
31515
27398
3521
26080
12454
26077
4269
30303
23928
30301
33807
22434
5310
34440
34346
34787
1103
12460
12451
12463
8108
31506
23828
3156
24071
23479
23927
30346
23967
8075
837
8105
11000
10998
29388
19249
2292
19054
19058
19061
3812
27927
8363
27924
27922
4875
33622
33620
33621
27342
12459
23965
1212
13086
13081
13088
31498
20570
34335
34267
4424
31433
31437
31435
31882
4425
31444
31441
31442
421
8103
8345
8350
10999
1121
12553
12561
12563
3513
25937
26040
26037
2778
20830
18936
22112
23562
20833
30353
19771
22338
4651
32686
32682
32684
3717
8361
27122
8369
3718
8355
27124
8362
27925
3536
26003
12557
26137
3088
23630
23780
23777
22822
24005
20285
20542
4613
26125
32497
28228
4085
19922
22851
29584
23647
21069
33625
26079
23302
29389
31443
31392
30350
1264
13355
13357
13353
34334
2647
19917
21581
20564
27344
34509
31396
30300
5365
23667
23969
31476
34328
3494
25902
25899
25905
19060
22433
12562
21070
8072
21072
30354
4022
24055
23925
27291
31401
32498
33623
25988
31436
19772
27338
22437
30306
24025
4272
30334
30326
30330
8348
8074
27395
30305
3135
23561
23999
23926
4734
32812
33053
33051
30344
20549
22435
23148
4520
23638
24024
31469
19056
19681
3030
22817
23419
22849
8349
26081
32681
33837
23646
23785
5134
34359
34510
34766
34363
3115
23824
23920
23890
32688
8346
13090
23461
3140
24015
23922
24016
21580
3053
23509
23501
23500
12461
27399
29394
31405
3305
12560
24933
24936
2454
19250
20426
20427
1104
12458
12467
12465
27121
27123
27396
3074
23684
23678
23682
32011
4719
25951
31878
32991
3138
23664
23966
24012
25991
30351
30333
5041
34357
34109
34504
34213
34260
22113
23644
2510
19826
20799
20801
19825
13358
27292
23781
23783
3517
26059
26002
26058
26056
13356
20284
3111
23906
23903
23901
5090
34436
34229
34341
31432
24935
27120
26039
24009
20547
838
10997
11004
11003
23420
3063
23594
23597
23595
23463
19767
29585
31508
2662
21656
19059
19677
31459
21582
23779
33052
30349
2426
20209
20204
20208
23680
23683
34364
30325
1122
12559
12568
12566
23507
34774
21654
29294
23299
23778
2512
20280
19251
20810
20811
33836
2923
22922
22923
22927
1105
12464
12473
12469
13087
25906
23505
25901
8347
25903
20207
32012
12565
4821
31511
33277
33273
23904
33274
420
8339
8335
8344
22114
383
8067
8069
8062
11002
8063
27928
2994
23281
22847
23280
2327
19370
19377
19372
23599
23596
23677
2759
20544
22063
21744
3538
12462
26142
12466
34550
4957
31471
34066
34072
34552
30331
8341
21655
26036
23282
23508
23592
22428
22926
33808
2467
19766
20500
20509
26078
3120
23645
23939
23784
34327
2690
21783
19678
21782
3533
26038
25990
26131
870
11175
11173
11176
8340
8068
13089
4914
29806
29395
31883
4684
27343
32689
32840
31440
2281
18950
18958
18956
34068
32994
32993
32496
32685
20425
19057
20510
29293
34682
2906
22808
13354
22809
32009
30304
33278
26138
12569
32838
4280
30395
30400
30396
5307
31438
30358
34263
2709
20543
20566
21867
8336
24011
2791
22157
20282
22159
31445
24938
19375
26060
2986
22431
23246
23249
22115
18952
23502
12472
22812
18954
20206
34680
26129
31447
19373
26130
30399
30329
23283
11174
3697
27032
27031
27030
4014
23827
27393
29249
31434
3102
23859
23642
23857
34337
2886
22638
22641
22642
909
11172
11397
11398
34506
23919
12474
21652
1213
13085
13095
13092
21577
20808
32683
839
11001
11008
11007
3104
23776
23867
23868
12470
19770
23866
32692
22637
23248
2402
20015
20016
20011
13094
22062
32008
22805
23421
3773
27620
27624
27627
33833
8337
20800
20809
4066
24017
23782
29291
3058
23549
23547
23553
8066
8338
2872
22515
22519
22518
4437
23685
24000
30302
4412
31355
27394
31354
31456
27617
3497
25935
25930
25931
23907
2678
21732
20205
21730
30403
8065
31521
22521
4499
8342
31889
29390
4267
23506
30289
30279
3520
25904
26055
26073
29251
4426
23905
31448
30343
3524
26091
26076
26092
33055
31352
26094
2553
19768
20508
21062
19376
4428
23598
31467
24010
31890
3537
26136
12567
26141
27926
19369
33627
4271
30322
30317
30319
3721
27134
27142
27135
30345
11399
3504
25900
25986
25983
22156
27132
2929
22429
22964
22921
23998
5109
30332
23649
31499
895
11171
11315
11318
2357
19651
19645
19644
26057
31464
3508
12471
26009
26010
908
11394
11395
11396
11316
33054
34070
30280
32841
4663
32743
31394
32742
1123
12564
12571
12574
4876
30348
31458
33628
29496
21728
4528
24937
11009
29391
23941
2368
19740
19055
19738
3126
23679
23961
23963
25934
31460
19734
4519
22811
29292
32006
32050
22520
20017
32000
3791
27754
22925
27753
27136
26075
3152
23902
23681
24061
18955
27143
21734
27626
23860
19649
22958
1106
12476
12468
12479
33630
2837
13093
22309
21578
8343
3084
23746
23751
23748
22643
3025
22640
22924
23406
2332
19422
19424
19429
4754
25907
31879
32990
18957
21061
30324
907
11388
11387
11390
34065
11392
25985
5243
23861
23921
31500
30401
27130
23858
23554
18949
22306
23503
23962
23247
32002
23555
32049
23591
23750
19646
25932
33124
33122
30321
23938
20798
30285
31450
12572
21653
4415
31369
31373
31370
26011
2544
20507
21012
21011
3784
27709
21579
27705
3015
23279
23380
23378
30281
4134
27033
8070
27923
2429
20231
20237
20230
26008
4270
30315
30308
30313
11319
29253
20013
22810
31519
2325
19353
19358
19355
33123
11389
23405
26074
22158
30312
21013
27034
29247
32003
31520
5144
31446
34261
34780
4820
30328
31496
33261
11385
23552
24060
840
11014
11005
11016
31452
33268
1107
12480
12475
12485
12483
26093
22962
3097
23676
23833
23832
23830
33634
34765
31886
27758
22513
12482
30397
29495
3131
23504
23937
23983
3944
12573
24934
28825
31463
419
8334
8328
8329
11314
1214
13091
13098
13097
3493
25897
25898
25895
12477
19354
3502
25972
25968
25974
4870
33594
32992
33596
19426
27623
2649
20012
19371
21591
22517
21007
22308
27621
22307
3002
22639
23322
23324
25890
25987
31350
382
8056
8058
8060
22963
23960
28823
4753
19650
21866
33118
31449
11015
11011
27619
2815
19374
22061
22242
19739
21593
25969
21594
23326
34726
29799
29250
20235
8333
8331
3125
23593
23550
23958
19737
22960
3043
11317
23457
22807
26012
23747
23377
21731
21009
19357
5186
34329
34231
34681
26140
4649
23869
23752
32007
33050
20236
3006
22806
23343
23244
25893
3076
23693
23694
23698
19648
33264
27756
11391
31356
3530
25933
26123
26090
23323
2457
18953
20441
20443
25984
2562
8064
21117
21118
29252
33259
19428
33598
4438
23940
31529
30327
33266
30282
33271
8057
23379
27757
33056
894
11308
11313
11309
23458
30314
3937
28768
28773
28772
20442
3145
23551
24032
24034
23831
24035
2714
20014
21886
21729
33120
5053
34069
32010
34549
13099
31465
25894
2266
11013
11006
18877
8330
21008
23342
33626
25896
4928
27625
33900
33834
29497
2228
11393
11386
18695
31462
19356
1108
12481
12491
12487
21589
2382
19850
19854
19855
20234
22516
1124
12570
12578
12577
27144
32837
30307
5301
23834
23964
31524
3511
12478
26028
12484
11312
27133
26121
23695
23697
23984
906
11384
11383
11379
3032
23424
22961
23245
11012
26007
26027
3708
8059
27092
27029
28771
25973
26139
5209
27759
22965
32687
21588
31372
3060
23568
23571
23569
4431
21592
31439
31489
32745
905
11378
11375
11376
32005
27707
12490
5087
33624
34666
34667
11310
2769
19647
21865
22090
28766
34071
27708
23341
8332
27093
31486
23572
23566
31488
31527
31353
30288
26072
5070
33125
33838
34336
19857
19420
34507
32004
29498
11373
33631
34662
20233
1109
12494
12493
12497
24037
33121
19851
18876
3503
25892
25975
25980
2859
22394
22395
22389
3101
23548
23851
23854
2525
20896
19735
20895
418
8322
8326
8325
26122
12486
12488
18696
2308
19205
19210
19212
841
11010
11022
11018
21733
21885
8323
25981
1215
13096
13104
13102
31891
27129
11382
31455
32676
30309
19351
4622
31888
32542
32048
31374
2983
23229
23232
23231
32740
33901
5051
34547
34067
34541
31526
5300
8061
21119
29800
4602
23556
31451
31461
11021
3527
26106
12576
26108
19213
23959
22393
2959
22514
23133
23130
23129
11311
23228
8324
4029
23749
23957
29317
27094
33629
3495
25912
25910
25917
28770
27139
23425
4417
31389
30394
31390
25970
26107
3100
23847
23567
23844
2311
19238
19234
19239
381
8055
8053
8051
25979
13105
2432
20258
20262
20259
3496
25923
25919
25927
2422
18951
20177
19421
4653
27755
32696
32697
2764
22078
20232
22077
3078
23708
23709
23715
19237
25925
23855
32693
32738
5266
18959
20444
30402
29320
893
11307
11304
11302
33600
23565
31371
2554
19352
21063
21066
23850
22397
1125
11019
12581
12575
33269
30323
23692
23848
31892
8054
25920
32747
21010
23325
3528
12489
26114
26113
19209
23131
25914
25908
3506
25995
25998
25996
904
11371
11370
11372
3943
27618
28817
28816
28774
2881
22598
22599
22601
5376
29254
34727
34864
11377
13101
33263
5086
31453
31523
33633
21067
21064
11367
2503
19849
20757
20753
11305
28824
18878
34505
26025
31466
8327
19206
32543
12579
34554
19856
5217
24036
34847
31454
30316
4430
31480
31484
31481
34661
26029
2990
22959
23264
23265
23856
3796
18694
27789
27786
34542
32699
2175
11381
18438
18436
4434
30310
31503
30318
32744
20758
27787
23230
842
11023
11017
11027
12495
3146
23570
24039
24043
25909
22596
4819
30284
31518
33257
20178
20174
2537
19736
20966
20964
31485
2256
11020
18821
18825
22396
2440
20327
20229
20324
20322
27791
4057
12496
29443
23696
33597
417
8314
8319
8318
22392
2145
11374
18216
11380
29435
25918
25999
11306
23845
20893
28821
22603
29319
2937
23017
23014
23019
32545
4623
32547
27706
32546
5084
31522
30287
33275
8052
3500
25891
25958
25957
1110
12500
12504
12499
19359
33632
33270
11025
4949
32839
34017
33119
2924
13103
22930
22931
11024
20321
4273
21590
30339
30337
23714
23710
29323
3532
25971
26104
26127
32442
28820
4872
30398
33608
32739
34553
27137
25913
20897
380
8050
8045
8049
19211
31388
2291
19053
19049
19050
22929
23018
2360
19673
19350
19669
30342
4564
19858
19427
27622
23132
903
11365
11364
11361
26115
32443
3698
27040
27035
27038
1216
13100
13110
13107
20260
32231
4898
30286
31528
33272
3153
23852
24033
24063
19240
2377
19233
19814
19810
12492
12503
902
11358
11359
11360
4422
29248
31351
31421
20756
25953
18823
25929
8321
4863
30311
33554
33546
18210
18827
23712
29439
31504
8315
34660
25928
18437
8317
27131
33553
22597
25954
32698
24042
19046
22600
26112
11366
2739
19425
20176
21991
33254
32695
11355
19817
27138
19674
4495
30283
23849
31525
18215
13109
8046
2652
21608
19208
21605
22390
4118
28767
26109
28822
20261
11368
31387
29324
20967
19668
33260
11303
5031
34453
34458
34457
20326
32233
4648
32674
32001
32673
2743
21065
22009
22008
20319
24040
8048
30336
1111
12498
12510
12506
27037
3534
11026
26105
12580
34548
23713
31502
22602
4281
25997
30407
30404
28818
33253
33256
33609
34650
29745
32548
29444
4411
25978
31342
31339
2869
22485
22487
22492
4571
25916
28769
32283
18826
12501
31487
22932
2239
11363
18729
11369
27788
3501
25965
25962
25963
19809
33592
19052
31482
2785
13108
22137
22076
31425
19672
2269
8316
18889
18875
30411
25915
22490
834
10985
10982
10983
20323
901
11354
11351
11349
2960
23138
22391
23135
18822
2568
20894
21147
20965
18824
18214
12509
25926
33550
32285
21993
2480
19848
19423
20602
22491
19241
31865
21148
31424
5348
25959
25982
31375
12511
19045
19816
31343
892
11296
11300
11301
31866
23136
21990
19051
3147
23711
24047
24044
26000
33745
3866
23853
24062
28325
28320
18213
21607
2462
19235
20476
20478
26128
5123
33267
27140
33276
33549
34545
22135
22010
4565
31887
32240
32239
10984
8320
25966
2789
22154
8047
20755
11297
20325
31478
20475
28819
11353
11352
2909
22594
22836
22833
2200
18566
11362
18568
11357
27039
29440
23015
24045
29436
2635
19852
21514
20754
4881
29321
33656
32675
34454
22139
2957
22595
23123
23125
22153
3095
23707
23816
23821
31345
22493
30408
3150
23846
24057
24038
22150
32281
27790
3529
25924
26120
26026
19670
4268
22007
30293
30290
31349
26110
34018
30412
18565
3722
27162
27147
27159
26132
30340
4999
32741
34281
33899
34544
33252
30410
31340
25967
20600
1112
12513
12505
12516
22484
18217
28322
11299
27156
3535
26133
12502
26111
31483
416
8313
8308
8309
4733
20968
30320
31385
32672
23817
22832
33595
33601
18888
5374
24064
24048
34848
29743
2571
20175
19812
21164
12508
21161
33547
25964
27150
22834
30294
12514
2171
11350
18408
11356
30296
31501
33046
2519
20256
19207
20854
836
10981
10992
10994
28326
4535
32088
29318
32084
33747
21515
3509
25976
25911
26016
2180
18211
18463
18435
1217
13106
13113
13112
2771
19853
20601
22093
21149
23126
900
11346
11342
11347
34651
27146
32235
3512
26035
25955
25977
26135
11298
2164
18209
18358
18360
18402
2645
19048
21572
21566
379
8042
8041
8043
26015
26017
21570
3516
25956
26054
25994
34664
18567
8312
11345
11348
5205
33255
34659
34838
34285
33607
2465
19236
20474
20498
5168
21992
34801
32746
3515
26048
25922
25993
4930
33912
32544
33898
27151
21512
4722
24041
31864
33003
10995
2728
19671
21951
21954
24046
20850
18406
2566
19047
20257
21140
8310
32671
18356
4687
23137
32855
32694
26117
2248
18773
18771
18775
21511
23820
24058
20499
5092
29442
34687
33265
3525
26098
12507
26096
28323
4951
29322
34031
34027
32230
20853
21146
19811
2961
23016
23134
23141
32853
23818
22488
2277
18918
18916
18913
2753
22044
20320
22045
26116
21604
891
11293
11295
11290
34839
415
8303
8307
8300
22041
26031
12515
31423
34686
10991
26051
5060
28321
34575
32441
32237
34016
26095
30291
1113
12518
12512
12521
3716
22151
27118
27036
3843
18887
28159
28154
11343
2941
22136
22928
23041
21569
34283
26050
18362
5394
24049
23822
33258
33655
11291
30341
22486
18407
899
11340
11339
11337
3519
25960
26069
26066
20849
32241
18464
32670
3522
26083
25961
26082
2902
22778
22593
22776
32284
33005
13114
18361
27119
22835
26013
32087
3749
27417
23124
27415
8044
23143
34654
21953
34026
30297
22773
33911
26030
18410
3514
25921
26044
26042
8306
18919
26046
10993
18409
12522
34840
33654
28157
12519
4868
30409
33580
33585
4496
26134
31870
29437
8305
5083
29441
33262
33744
2305
19177
19183
19180
21163
8311
21138
30295
26041
26014
11294
32851
11341
34898
4282
19815
30415
30419
4414
30406
31368
31364
21162
4143
29434
29830
29826
27160
21955
26067
32086
18774
5175
33599
31346
34604
31338
27419
898
11334
11335
11336
2794
20852
21606
22170
32085
18917
32234
31422
23142
22042
34576
18462
2641
20599
21546
21543
1114
12526
12524
12523
3839
28126
28130
28127
26097
11331
4721
26119
31420
33002
26065
4277
20477
30371
20497
2225
11338
18683
11344
3862
21513
28290
22152
18403
3803
27842
23819
27841
34284
27161
5124
33552
27141
34665
2574
19813
20495
21182
28156
18680
26118
378
8038
8036
8039
28293
29438
31867
22043
12517
27846
2963
22489
23155
23153
26099
33000
30374
1218
13111
13118
13117
34645
22138
4222
10996
18776
29742
28294
8301
27154
32287
27149
27117
2197
18212
18355
18548
28160
22777
30417
18461
4432
30338
20855
31477
8304
5367
20479
18920
31391
19179
23040
29828
2227
18564
18404
18692
34546
5216
28324
34845
34837
26053
26084
18357
34030
12520
34652
26032
18684
27844
19184
19178
23038
897
11330
11326
11323
4276
30362
26047
30359
33584
11329
11324
34033
22780
2341
19506
19512
19508
4836
31386
33045
33372
30418
18681
27145
18682
4866
33004
33567
33251
31363
21180
4702
31341
26018
32282
33571
34748
30376
21160
2760
21952
22006
22064
11332
28155
26045
4621
32280
26070
29744
29827
34846
5308
26019
31348
26034
23139
21141
34648
835
10987
10986
10990
28158
34028
22169
21567
27148
33915
33575
11327
23152
34577
2953
23099
11292
23101
2873
22525
22528
22522
4686
32849
32669
32848
33049
21573
34685
4413
26049
26052
30405
26085
18693
10989
4401
30292
30335
31268
2661
13116
21649
21647
8040
26043
26071
890
11286
11284
11288
29831
19507
30364
2380
19838
19833
19834
4643
20856
22171
31479
31493
21179
2479
20597
20593
20592
32847
2630
21487
21489
21486
21571
2241
18736
18359
18735
21646
21651
32852
22775
30147
22526
28129
32641
32916
18914
27843
21548
414
8292
8298
8295
27418
743
10407
10413
10406
18689
4941
31344
33593
31365
31357
739
10381
10382
10380
19511
30363
22779
8037
20595
30360
18912
19839
8296
2261
8302
18847
18772
27845
32643
18545
2235
11325
18717
11333
31491
18678
741
10395
10394
10398
32914
2244
18405
18679
18745
31490
18690
31868
32999
33972
27152
10411
30367
10410
31267
11287
4494
11328
12525
31860
5303
31347
26033
34886
2160
18332
18327
18329
2468
20516
19176
20511
729
10309
10310
10312
33974
29829
30369
31367
10988
18849
33376
737
10366
10367
10370
2945
22774
23062
22831
30373
18328
5385
32243
32238
33917
731
10322
10323
10324
20594
5094
30298
33551
34663
4624
32552
23140
32550
31358
18716
377
8035
8030
8034
727
10295
10298
10296
18714
5143
32236
34777
34282
20514
20512
10383
27840
33914
733
10336
10335
10337
28295
4704
21547
32922
32232
2318
19298
19292
19294
11285
724
10275
10277
10272
3699
27042
27045
27043
3813
18691
27935
27930
1219
13120
13115
13121
8294
33375
19505
725
10282
10281
10285
33581
33047
735
10352
10354
10353
5130
32286
28161
33913
18746
22524
33568
23154
2375
19795
19797
19799
896
11321
11320
11322
10397
10412
27933
18734
4570
32275
26068
32273
22065
8293
32274
32915
728
10302
10306
10305
19513
5296
33916
28162
32242
2822
19182
22266
21544
27934
2577
20496
21197
21178
32541
740
10389
10387
10385
10377
34032
34456
4992
27153
34246
33606
2782
21139
22127
21568
8031
738
10373
10363
10375
10371
23103
10278
2675
20851
21714
21715
5061
33657
34029
34543
10299
8299
19836
10338
30416
19793
4407
31313
31311
31312
29825
5085
33746
34657
34649
10368
10355
18546
730
10307
10319
10316
32553
28128
742
10403
10401
10399
10391
10293
32850
732
10330
10327
10331
10320
2938
23020
22523
23025
34808
698
10090
10088
10087
18715
744
10419
10417
10416
5341
20598
30299
33048
2484
18915
20591
20625
27839
20626
31861
10318
734
10333
10345
10344
10341
10271
31308
10086
10326
30375
34755
8033
34455
32854
2139
18160
18165
18162
19514
721
10252
10253
10256
4216
27416
30131
30130
2158
18316
18312
18314
726
10289
10279
10292
32549
18313
23102
11289
32921
33572
736
10349
10360
10359
10357
32913
18330
19299
23061
2993
21650
23039
23276
10255
33976
10405
23151
22265
10313
2740
21997
19181
20513
19295
19835
19801
21994
13122
3986
28153
29072
29069
34778
34779
18163
19297
2378
19818
19821
19823
33374
32278
22066
34250
32923
34694
18743
10297
18848
23024
10291
31306
22126
18850
4453
18331
18547
31606
21200
27929
4420
30361
31411
31407
10251
29832
31270
31271
34642
10286
18161
19794
2824
19509
21545
22271
34756
5108
31869
10384
33001
2211
18619
18624
18621
23021
4746
21181
30372
30414
4450
27044
28292
31587
3890
10396
28482
28480
8297
2796
22178
8032
21488
31591
31588
34693
22263
5245
31360
31366
33586
4569
32271
10303
32265
2870
22494
22502
22498
10276
2283
18971
18976
18974
31592
34578
10369
27936
34647
2146
18224
18220
18223
5407
30368
10356
31361
2147
18229
18231
18230
4869
30365
31359
33579
889
11281
11283
11279
34684
2787
19796
21648
22146
34249
28486
32270
29075
10340
2271
10089
18846
18896
2599
21324
19504
21328
10390
10304
10311
10317
10388
10362
5088
27157
34670
33583
10374
10274
21199
10376
18315
10348
33970
5113
10414
29833
31862
34696
2964
23160
22527
23059
29076
10404
10402
22497
10254
18311
2734
19820
21565
21976
10283
22176
22145
30366
4344
22264
30929
30927
722
10263
10250
10258
30129
31605
10361
4607
10332
10325
31362
10339
4636
27932
32618
32616
21974
5032
33548
31494
34452
18164
18744
10347
31412
23022
11280
33573
33371
21996
4551
10284
32167
10290
18622
1220
13119
13126
13124
3799
27804
27809
27808
32468
31269
34251
413
8287
8291
8285
32269
31608
4278
30386
30381
30380
33975
19824
33591
18894
18219
1832
10314
16539
10321
31305
5237
10420
10415
31863
32264
4318
30741
20515
30413
2584
19837
21240
21196
30928
20596
20624
5089
27158
34677
34674
18977
28488
31413
18157
21326
30384
18225
18232
18222
10259
3022
23400
23100
23398
10346
21330
32166
33590
28489
1834
10294
16550
10301
10287
20622
3894
19800
28125
28511
1830
10342
16529
10351
5352
28131
23156
32554
1829
10350
16523
10358
4402
31275
23060
31274
23278
376
8027
8026
8028
1835
10273
16553
10280
32467
11282
2314
19259
19264
19262
29071
1833
10300
16543
10308
10315
23159
34461
1828
10372
10364
16514
10264
699
10085
10095
10092
32464
1827
10378
16510
10386
16516
10379
16508
10393
1826
10400
16503
10408
10392
16501
31273
31279
33100
4953
31492
32642
34039
13125
31410
27806
1831
10334
16534
10343
10288
16555
16520
10365
22500
2496
20712
19503
20708
4348
30370
21198
30953
18975
5158
34653
34749
34750
19300
2421
20173
20168
20169
2522
19293
20877
20875
16537
16538
10329
10328
16532
5002
33570
34310
34025
19257
32169
30949
21995
32644
22147
8290
8288
1836
10409
16558
10418
34729
2685
21760
19296
21713
2176
18310
18441
18440
34644
32266
33588
31280
5021
27155
33582
33973
16540
16544
4998
33910
34276
34274
34656
2530
19792
20926
20922
33373
28487
2874
22530
22535
22529
31408
34275
4977
34172
32912
34171
16517
27811
20171
34658
4287
22125
30460
30458
18620
10093
16552
16535
10262
3715
22177
27114
27041
16527
23277
30737
34643
34672
16505
2381
18970
19845
19840
16499
16549
20167
16512
16524
16528
16547
16500
16557
32267
2245
8286
18753
18748
34311
888
11273
11278
11274
18159
18442
34278
16530
23158
3842
28152
19510
28147
18751
32277
30733
723
10257
10265
10270
27812
34280
28513
27116
30740
33574
34459
10266
3805
27866
27859
27861
30383
18749
34414
30948
20165
20878
34668
11277
20710
22537
30951
22533
31589
2166
18227
18158
18376
34673
8029
2386
19884
19258
19891
4452
23399
30128
31600
2943
22496
23052
23046
31599
21237
4399
31260
19822
31256
19846
28151
4635
32615
27931
32613
21327
20924
21761
21238
718
10230
10229
10235
20876
19847
34417
3740
27366
16536
27359
2161
18326
18340
18338
712
10189
10194
10190
21975
34040
33967
2648
19819
21583
21587
34247
34248
5420
16546
16551
32279
19889
19885
32611
8289
31603
32272
18378
1221
13129
13123
13130
22501
4223
21329
30151
28291
18226
27360
2236
10261
18718
18221
27864
30377
19798
27857
5240
16504
16511
28490
30149
11275
4139
10096
18895
16554
31310
3952
28867
16548
28866
22179
20706
34245
4899
29074
33753
33750
16541
30462
4142
16502
29821
16556
29068
4606
16526
16531
32462
20925
433
3388
434
460
8434
8442
8431
8432
8589
8439
439
454
3401
440
8474
8562
8476
8473
8482
8483
3402
441
453
8484
8489
8480
8481
8557
8488
412
8278
8284
8283
3737
16506
16513
27337
703
10125
10124
10129
34730
30735
716
10221
10218
10217
720
10091
10249
10245
2347
19559
19565
19563
3744
16518
16525
27391
23050
8279
29815
5276
18317
18625
31314
18721
33971
19844
32168
32276
19263
710
10180
10175
10174
701
10112
10107
10108
18443
4345
30926
30935
30930
705
10141
10139
10138
714
10206
10205
10207
27332
18233
31604
32460
27388
4878
31307
27810
33566
10233
443
3400
444
4048
8502
8509
8499
8504
25416
8511
3403
8503
25414
25432
2968
23174
23023
23157
717
10222
10223
10226
700
10098
10269
10103
10100
702
10114
10117
10121
10113
10104
27115
10216
10227
715
10215
10210
10211
34313
442
4791
3412
8495
25434
8498
8496
25430
25470
8492
8505
32458
10234
2494
20696
18972
20692
33644
13132
27867
719
10228
10238
10242
10237
29822
425
3391
5207
3396
8375
25374
8379
8376
25367
25398
446
3404
8525
25439
8523
8522
25395
8372
22531
432
3409
3393
5320
8428
25380
8427
8430
25459
25384
8435
8423
8436
25349
25355
438
3410
5116
8471
8477
8467
8472
25461
8479
437
3398
8460
8466
8464
8470
25407
25404
34169
711
10173
10182
10185
709
10166
10167
10172
445
3411
4052
8517
25435
8516
8518
25463
25436
8513
8524
429
4780
430
8407
10214
8403
8400
8413
8412
10204
8411
10209
431
8418
8408
8422
713
8417
10202
10197
10097
5227
8510
8506
8512
25466
8519
25415
25419
827
4224
10948
25437
10949
10947
25396
978
10946
11741
11740
18371
28871
2157
18306
18218
18308
4526
16515
16521
31406
426
3397
4226
8384
25368
8385
8386
25372
25402
8371
8378
427
8380
8392
8390
986
987
2132
11786
11792
11783
11784
18128
11790
982
983
2130
11765
11770
11761
11762
18117
11768
984
985
2131
11772
11779
11773
11776
11781
18122
4979
32268
33969
34180
10200
10198
10193
10188
2156
10260
10267
18303
34676
704
10134
10130
10131
706
10147
10137
10144
450
8500
8543
8508
21585
980
4138
981
11753
25464
11752
11749
11760
11759
11758
25418
988
2133
989
11795
18133
11797
11794
11802
11803
25421
11804
18134
708
10159
10158
10162
3798
11798
11789
11793
25426
11799
25422
25420
451
8493
8549
8501
3835
10224
10231
10225
25400
10232
428
8398
8387
8391
8399
8396
10219
8397
8393
8405
8404
4050
8486
8497
8491
8490
25468
25427
25425
4873
16522
33613
31409
4792
8485
25424
25429
31272
435
436
5413
3406
8445
8459
8451
8449
8457
25448
3386
25341
8448
25336
34309
833
829
10945
10979
10944
10957
10961
910
927
924
11401
11486
11403
11400
11465
11468
375
8024
8023
8021
447
8530
8373
8520
8591
461
8433
8424
8594
456
8461
8573
8469
455
8475
8468
8569
20872
3408
830
4135
10247
10967
10244
10248
25454
10968
10240
10241
697
2257
10084
10094
10081
10082
10246
32042
448
8514
8534
8521
463
8416
8409
8601
464
8401
8606
8410
449
8507
8540
8515
2622
20166
21444
21447
3959
913
10120
11415
10116
10128
10123
3399
11414
10126
25410
3392
3953
8456
25377
8458
25376
25444
8452
8465
8463
25405
25375
2134
11764
11755
11757
18139
11763
33643
707
10156
10153
10152
467
8382
8619
8389
30461
8548
8541
3405
5375
3407
25350
25443
25356
25351
25440
25452
25332
25335
25340
3385
25331
25326
25327
3413
25475
25328
25441
20172
3741
11771
25431
11767
11777
11775
25467
5150
10192
10199
10196
25458
10203
25383
10191
10183
10181
10187
32465
990
5193
11800
11808
11805
11807
25462
11404
11405
25408
11402
452
8494
8553
8545
8558
2917
11276
22889
22887
10157
10170
465
8394
8610
8402
466
8388
8615
8395
33587
8487
8552
8564
20873
8559
10083
10965
23051
458
8446
8581
8454
4814
979
11742
25438
11738
11748
11746
11747
11743
25465
11754
8526
8535
5093
34646
34689
34655
8586
8565
4053
11778
11788
11782
11787
25469
25428
20927
29402
915
916
3387
4119
11421
11429
11423
11425
11433
25347
25344
11424
25412
914
11419
11420
11416
32466
3987
25353
25382
25451
25379
8539
8531
4822
28485
33284
33281
8599
2199
11467
18558
11466
18559
922
923
11460
11457
11456
11464
11463
11462
8544
8536
34695
32617
29823
457
8453
8577
8462
8613
8616
3759
10122
10127
10135
16507
10143
10150
3841
10178
10171
10169
10177
25449
10160
10168
10163
25329
3389
4049
10146
25359
10148
10145
25342
25346
10142
10140
10136
10132
25411
10133
29403
3899
10176
25381
10179
25450
10184
28149
3992
3390
25338
25365
25333
25445
25364
3395
25334
25363
25392
31259
4081
11766
25417
25433
8607
8550
18339
33748
919
4087
3384
11447
25393
11446
11445
25323
25319
3394
25321
25385
25318
25472
25388
3414
25386
25322
25477
918
11437
11440
11442
11441
8554
3936
25401
25371
25369
25399
25453
3792
8421
10201
8420
25456
8414
8429
4670
16545
10208
10213
459
8447
8585
8578
2264
831
10966
18862
10964
10970
10972
832
18861
10971
10969
10975
10976
920
2204
11450
18586
11451
11452
18587
11444
11443
917
2207
11436
18602
11435
11434
11439
11431
11427
11426
2219
912
11413
10118
10115
11409
11410
10110
10106
2194
911
10109
10101
10099
10105
11407
921
2201
11453
11459
11455
11454
11458
18570
11448
11449
11406
11408
18307
4144
25474
25330
25325
25358
25361
10161
10165
25357
25389
25343
25348
4055
8478
25460
25423
29419
8281
4689
31276
32860
32551
4115
10151
10155
10164
16519
30154
3832
8437
8450
8443
8441
25337
25352
5163
10239
10243
25403
25455
10236
4671
10186
10195
16533
25409
29420
2140
18167
18174
18171
32463
18300
8570
8572
29411
3950
8406
10220
10212
18377
2212
11412
11418
11411
18627
21584
3743
11430
25387
11432
25476
25345
4447
18623
27807
31304
4093
25339
25442
25394
25390
25320
25324
25473
2262
10978
10973
10974
18852
10977
10154
25360
10149
18829
18831
5157
10980
25373
25397
29813
18168
1879
8381
8374
8383
8528
32619
33645
4086
25366
25378
25362
25446
11461
23047
2129
11751
18114
11756
462
8415
8598
8425
28094
28099
4720
18752
32998
29073
22890
8563
20711
2253
18747
18807
18805
18129
28095
10962
10958
28864
28144
28868
8438
8584
27371
27363
34415
18135
28876
27803
27863
33282
28903
20695
34734
29801
8527
8618
27387
1876
8580
8455
8574
8576
1872
8587
8440
8582
8583
18141
1884
8419
8597
8600
8595
1882
8596
8426
8592
8593
18118
18123
20693
2137
11796
11791
18146
19261
8560
8568
29418
30152
19564
2179
18228
18458
18333
29079
25457
29400
4800
33205
28484
33204
5069
34603
34273
34601
28878
18137
3939
28788
28780
28781
27364
8602
8605
8611
27500
18131
18124
29412
29812
19890
11483
11488
13128
27365
33749
27334
4228
25354
8444
8590
16542
29408
21446
2234
10102
18713
10268
32775
18808
27763
18830
2135
11769
18142
11774
4673
16509
28483
32786
19560
27761
2588
21236
20623
21266
28146
29428
3018
22534
23389
23275
18302
18119
11485
22495
23173
16786
28763
29417
28141
28785
23387
18336
28548
27331
2136
11780
18145
11785
2128
11750
11745
18112
33207
18561
28854
29113
27358
18534
27389
32459
18136
27361
29081
27367
32774
28857
29078
34791
30738
16787
27333
29816
1877
8542
8546
16775
13131
28097
33612
33610
27335
16799
28143
18866
28142
18140
28079
16810
2116
11739
18043
11744
28093
2274
18750
8280
18906
33755
18663
28550
29802
3818
8377
27968
25370
30734
27762
29834
8538
16779
27496
1883
16805
8547
8551
18459
1874
8614
8617
16760
19887
10963
32995
28078
3945
10111
10119
28831
4497
29070
31871
29814
29405
27966
28547
34675
29427
16771
18629
33206
29820
8588
1873
16754
8566
8571
8608
16758
27368
1880
8529
8533
16791
27384
30379
32614
8604
2210
11422
11428
18618
11417
29615
28137
33243
28873
18113
16768
34168
2117
11801
18048
11806
27385
29570
27362
18111
18110
18127
18309
29731
29730
32777
30456
16778
22536
32861
28140
1875
16766
8532
8537
3861
28283
28289
28284
18590
29406
18132
8556
16802
3910
28628
8282
28623
3960
18719
28912
27805
18630
1881
8555
8561
16795
27382
11438
18591
18604
30163
18865
31576
29589
8579
16748
27497
18569
18530
2195
18538
18373
18439
31590
28765
18563
8025
27801
29732
8575
16751
29111
10959
18042
29404
18116
18120
31258
27381
29588
29568
32041
18603
29110
29422
27383
34688
34671
18851
31873
5091
33589
34683
34669
27336
32461
29729
27369
31574
16808
18573
18126
18121
16797
30153
28092
4990
33569
31309
33641
28869
16790
4882
31602
31607
33660
16745
27357
2500
18973
20740
19841
33203
27802
34678
18662
18856
18115
18539
19843
28287
29429
16767
18299
8567
16794
2411
20085
20088
20089
28076
34179
18720
27760
5014
34379
34384
34381
23175
20691
28828
16806
5268
25471
18125
27372
18804
34170
28784
18041
3993
25406
29115
28872
16746
28865
21448
29413
2640
20707
21539
21325
18828
18372
29116
18046
16772
29423
1878
8603
8609
16781
28826
18905
18173
18166
18531
28138
11484
28911
411
8277
8274
8271
30933
18810
16757
34690
27499
34236
28074
16783
11487
28073
28761
2825
20170
22272
20709
29077
16752
28626
32612
18170
16762
4230
25447
28874
30173
29407
28853
8022
28782
16784
28549
18562
18301
16809
34316
16763
27963
16792
16743
34237
16776
18626
2747
20874
21759
22022
18809
4970
27865
34127
34038
27498
3989
29089
29093
29090
34128
34233
18532
29614
27967
16749
32784
28075
27380
29112
10960
18904
18341
18572
887
11268
11271
11269
18615
28906
5145
8612
16761
28096
18617
18585
16798
28139
4227
27370
29401
30160
1222
13127
13138
13134
28150
28908
2975
22499
23205
23048
18557
33283
2485
19260
20630
19886
2282
18965
18967
18962
2385
19883
19876
19879
20739
2119
18058
18059
18061
22020
27390
18601
18855
22885
34416
5380
28098
28870
34900
5256
25413
27501
28904
16777
28285
18460
31278
16796
2120
18065
18069
18064
28855
18143
4978
33968
34175
34174
18631
16750
2127
18106
18105
18104
32996
2126
18100
18101
18102
29091
29586
29410
5355
21239
30385
30952
4837
30950
33370
33378
32040
3785
27715
27711
27714
28910
29746
28786
34176
13137
27713
16789
2122
18077
18078
18080
20629
18854
16780
18062
32776
34380
30159
21540
4410
28481
31337
31333
2858
22386
22381
22382
3949
18130
28848
27800
828
10954
10950
10952
31872
33754
2125
18098
18095
18094
2124
18091
18088
18089
28288
16804
374
8020
8016
8019
32785
21268
30382
33380
16782
16756
28851
18108
27712
4315
30716
30712
30714
22383
16744
2973
22532
23196
23192
18964
28764
29092
5386
29803
18832
29817
31874
30710
16764
29569
2121
18071
18075
18072
2315
19268
19266
19271
4688
27862
28512
32856
2231
18375
18536
18704
19881
3700
27047
27051
27049
18068
18074
27495
28830
8275
18057
23388
34799
28850
21445
28856
34167
10955
2123
18084
18083
18085
18703
4054
29409
29425
29421
16769
33379
5353
18044
30155
33244
33279
23204
4784
16753
28875
33180
8273
16788
21541
28624
19566
2203
18584
18305
18581
16774
31334
28286
18711
32858
33182
29426
18092
5337
27764
29080
34890
18103
4421
31417
31414
31415
16803
18099
34238
31575
18811
33611
30161
18867
2679
19561
21737
20923
18070
4285
18537
30445
30442
926
11478
11475
11482
20086
4225
16759
16785
30156
2118
18051
18040
18055
16765
18806
16800
23195
3489
18589
25879
25391
2601
19888
21339
21337
34781
29114
28077
16747
5339
18138
29430
34830
25881
19880
11481
21265
27710
3766
18060
27564
27563
21538
4058
18533
29445
18712
18097
20694
27964
25882
18049
11479
28829
18298
18582
5402
34871
18144
27373
27386
8017
30164
18087
29094
31876
4740
31277
31601
33076
13139
18664
31418
16793
18107
18082
18050
10956
3470
25788
25792
25789
29424
30157
5182
16755
16770
28877
27561
18063
2221
18374
18672
18457
10953
34173
27965
18067
27562
28762
18966
18081
31332
4449
28145
31583
30148
4403
31284
30459
31282
25790
19273
2189
18169
18304
18508
3476
25822
25824
25823
28827
2215
18535
18172
18647
23172
28905
28849
18109
3879
18337
28403
22888
31586
5151
28787
34786
33751
34792
33658
25793
18093
31335
637
9651
9653
9652
16807
3487
25874
25876
25875
18045
30172
18646
34785
8272
19269
3478
25838
25833
25835
18701
3482
25849
25853
25850
3456
25701
25704
25702
20738
8018
485
8740
8744
8743
30443
18086
25791
18056
25700
2611
19842
21394
21391
32859
25825
25832
18864
25821
5274
29824
28832
33208
30441
29587
3469
25782
25785
25784
641
9679
9681
9680
9682
3479
25840
25842
25841
33181
22387
3727
27225
27235
27234
22021
630
9601
9597
9598
635
9639
9637
9638
19878
30162
25834
3468
18560
25774
25776
28913
18076
30158
11272
20627
496
8798
8800
8799
25775
503
8828
8829
8831
20736
3486
25872
25870
25871
18054
25783
25703
23194
3462
25747
25745
25746
34308
3466
25766
25768
25767
627
9576
9578
9577
9596
18571
626
9566
9568
9569
3464
25754
25757
25756
937
11538
11534
11535
18616
933
11517
11514
11515
3461
18661
25739
25738
3460
25733
25731
25732
25852
16801
2192
18334
18456
18523
3485
25866
25865
25864
3474
18073
25812
25811
29446
18670
642
9690
9688
9689
494
8793
8791
8792
9600
25737
929
11494
11495
11498
9570
25851
4400
21586
30457
31255
3457
25713
25710
25711
25758
33073
490
8773
8775
8774
25740
25734
632
9612
9613
9614
9636
934
11523
11519
11522
25712
28404
3454
25687
25686
25688
3455
25694
25696
25695
9654
4568
32260
32257
32259
25813
25867
935
11526
11529
11525
824
10935
10932
10931
507
8847
8846
8848
3483
25858
25856
25857
25880
21739
493
8786
8789
8785
18505
3491
25886
25888
25887
498
8807
8806
8805
19882
27858
28852
4862
33544
33539
33540
500
8817
8815
8816
623
9553
9552
9551
491
8778
8777
8779
826
10941
10943
10940
499
8812
8810
8811
32256
8813
509
8854
8856
8855
31264
25836
18090
28779
4396
31244
30378
31240
638
9660
9661
9659
3477
11480
18047
25829
3471
16773
25798
25797
25799
510
8859
8857
8858
598
9368
9369
9367
3016
23202
22886
23383
941
11555
11554
11556
4874
33617
33615
33616
25873
25827
25828
28622
27238
27236
25705
633
9623
9621
9622
2979
23049
23201
23218
18079
9683
4879
33648
28148
33647
25859
27050
3488
25878
18628
25877
8788
501
8819
8822
8820
8276
25826
8832
3465
18853
25761
25760
25830
639
9669
9667
9668
18522
18518
22384
25778
18506
505
8838
8839
8840
973
11713
11714
11717
18644
504
8836
8834
8835
942
11558
11559
11560
9615
928
11476
11492
11490
483
8725
8729
8728
3458
25717
25719
25718
30932
25777
939
11545
11546
11548
4642
27860
32640
32637
3723
27172
27176
27175
3473
18096
25808
25807
9640
2398
19982
19988
19985
2387
19265
19898
19892
492
8781
8783
8782
33618
3459
25726
25724
25725
969
11690
11691
11694
3475
25819
25817
25818
9599
25763
9691
8741
2297
19101
19104
19106
25814
469
8633
8629
8632
643
9699
9696
9697
9650
8808
9634
33382
822
10926
10923
10922
5003
33642
34318
34234
8742
25820
25837
34126
3481
25848
25846
25847
25786
972
11707
11708
11710
8821
2224
18677
11270
18335
9575
18066
25796
644
9708
9707
9705
373
8009
8015
8010
965
10951
11673
11669
8827
23206
3484
25860
25862
25861
31336
25779
489
8766
8770
8769
25762
2250
18789
18786
18784
32636
18053
628
9583
9584
9582
11557
31283
2745
19562
13135
22016
18052
9674
470
8637
8641
8640
25809
3490
25699
25883
25885
25787
4448
28909
31578
31579
18968
646
9722
9720
9721
4703
32919
28783
32917
34320
624
9558
9556
9557
5252
33752
32997
34602
11670
9610
21542
30150
19102
25742
25764
25755
502
8826
8824
8825
25697
8723
484
8732
8736
8733
31875
975
11725
11728
11724
1849
16626
16623
16621
8780
9619
9649
23382
8784
968
11684
11685
11688
11536
25741
11711
974
11722
11719
11720
886
11267
11263
11265
25831
1848
16618
16616
16617
9563
30715
634
9629
9628
9627
8738
976
11732
11731
11735
25863
4229
28907
30169
30166
25753
3472
25802
25804
25803
25805
25884
508
8849
8852
8850
18969
821
10916
10920
10919
25728
31419
11537
25720
8804
9567
3463
18588
25749
25750
11516
11513
25854
8809
8814
18863
25723
10933
25680
8734
9677
931
11507
11504
11505
9678
1855
16654
16652
16653
8776
4314
30707
28282
30706
506
8844
8842
8841
11497
34319
967
11682
11679
11680
19897
9657
971
11705
11701
11702
25706
645
9714
9717
9716
8764
25855
2505
20767
20771
20770
27223
27233
25709
32258
8627
11520
25751
25690
11491
21267
31246
410
8264
8266
8269
497
8802
8801
8803
8851
11518
11528
472
8651
8654
8649
10934
21735
9633
25716
25681
25691
30708
11715
11716
11729
3467
25772
25727
25771
25707
9608
8628
8012
8823
25744
32261
8818
930
11500
11493
11502
11508
11499
23193
18787
9366
481
8714
8709
8713
636
9630
9645
9644
9641
9594
480
8701
8706
8705
9666
8843
25815
33280
8787
25868
16624
8636
8833
31257
11692
11693
18520
940
11552
11551
11550
11549
10924
31261
25715
8724
1854
16648
9656
16645
8652
9547
8765
8635
9548
9684
9695
2933
22380
22994
22988
9655
21738
21338
9571
25794
8830
11547
8711
9706
31331
16647
8704
10942
18583
11709
25759
27166
31582
9715
28627
631
9607
9592
9606
9602
474
8662
8664
8667
22989
2922
13136
22918
22920
25735
33619
476
8680
8676
8679
9664
9700
18519
9718
25806
30170
21393
2646
21575
20087
21537
9365
8726
9581
9624
938
11543
11542
11540
11539
25722
977
11477
11736
11737
10915
9595
11553
9723
9565
9692
25721
970
11698
11696
11697
8631
31416
925
11473
11469
11474
11470
8666
8845
8650
8677
482
8721
8717
8720
25801
19989
11678
19893
31584
488
8759
8763
8762
22388
32857
32252
33659
10918
9616
11721
11718
2498
19267
20722
20728
9643
479
8695
8699
8698
20766
9648
16649
8771
495
8790
8739
8795
8731
8794
8663
8837
25714
8797
4831
30736
33330
30931
8638
8675
8772
4408
18645
31315
31323
11734
11686
22917
25773
16625
8768
32918
11264
599
9375
9373
9374
32262
486
8746
8747
8750
9710
8719
8853
8761
9675
25816
11723
11700
11699
11695
18507
31318
25795
10917
33075
8696
478
8692
8689
8691
4349
19272
30958
30947
2174
18428
18430
18431
8722
31241
8796
27170
8678
9372
9580
25765
8700
11489
11681
25810
8265
8749
8737
1851
16635
9609
16633
25800
11726
1852
9625
16639
16637
9646
11671
9549
25780
25729
27231
25708
25869
2644
20628
21563
21336
25698
487
8753
8756
8752
18429
30705
1856
9685
16658
16657
8708
16656
30167
1857
16663
9712
16662
8702
8694
25682
11521
8690
8727
8735
825
10936
10937
10939
10938
10930
932
11512
11510
11511
11503
11509
936
11524
11532
11531
11530
11544
3492
25730
25889
25781
25693
25770
25685
25684
16640
9631
4409
18671
18702
31325
471
8643
8644
8647
11266
473
8660
8656
8657
8011
8712
8710
9574
25752
9687
9686
640
9662
9673
9672
9670
18643
629
9591
9585
9590
468
8625
8622
8621
8620
25839
8748
8716
16619
11533
16622
9605
9611
25683
11527
3480
25843
25743
25845
25689
25692
25844
25748
8751
1850
9593
16631
16628
823
10929
10927
10928
10921
8626
8758
8755
11730
4279
30391
30390
30392
9709
30440
9658
9665
25769
8707
8270
10925
8693
477
8682
8683
8686
32638
31328
31327
8688
9620
9626
9635
11496
11501
11506
30439
31319
9671
30704
8634
1223
13141
13133
13143
8648
19100
9364
9371
8645
9698
8659
18521
1858
9719
16667
16664
475
8673
8669
8670
18790
11472
9586
16651
8624
8623
16661
9704
9701
9702
23219
8715
11683
11689
11712
11706
9559
9703
16660
16634
16638
8267
18960
8757
8754
9663
19984
8630
8681
8703
8685
8687
11471
11727
25736
11541
9564
8639
8646
8653
8658
9693
8661
19899
19107
9572
8668
9579
9588
9589
9604
27232
9603
9573
4880
32255
33651
33650
11687
8718
966
11675
11674
11677
11668
11676
16629
31580
11672
8767
8760
9711
8684
31581
8697
16666
9550
11703
11704
13142
16644
8665
8672
8671
11733
9617
9618
16615
9555
30389
16627
33538
9676
1853
9632
16643
9642
9647
33646
27164
2600
19877
21334
21331
16646
21576
9713
9587
3810
23203
23381
27905
16632
30956
8642
8745
8655
8730
8674
3758
27484
21736
27489
33614
27909
27902
18963
16650
16641
16636
20726
31263
30713
625
9562
9561
9560
22993
5105
20772
30739
30934
16620
4283
30421
30427
30422
16659
16642
27228
16665
16630
9694
28625
31585
33652
4045
8014
29384
27048
30165
21395
30717
4339
30899
30895
30898
27486
27171
20723
22995
22919
9554
30702
2623
21392
20737
21450
2183
18477
18472
18474
885
11259
11257
11262
2497
20719
20714
20713
29385
16655
2799
22191
19270
20724
2319
19301
19308
19305
18473
27907
21562
27168
622
9545
9370
9541
19894
409
8256
8259
8255
606
9427
9422
9426
9546
30426
9540
2148
18237
18238
18236
612
9471
9465
9470
27491
27488
11261
8261
615
9489
9495
9488
22189
8263
9468
1224
13140
13149
13146
18432
607
9430
9434
9429
613
9473
9474
9479
9492
9494
3714
8268
27046
27113
18476
9432
5347
32263
34279
34178
9476
2487
20641
19099
20646
33332
5004
34235
34323
34307
27239
21333
4395
31233
31236
31234
5226
18705
18433
30444
2150
18255
18254
18257
30388
31237
19987
30423
21574
13147
19108
5400
33383
34697
34679
30897
29387
31330
605
9415
9420
9414
4319
30701
30746
30745
30743
604
9408
9412
9411
11258
21561
2186
18490
18494
18492
19304
34315
611
9463
9458
9459
19896
19105
600
9381
9377
9380
610
9456
9451
9453
9421
33329
9464
31322
2878
22572
22567
22568
9425
20715
20718
601
9387
9384
9389
621
9538
9532
9533
13145
2866
22463
22461
22457
603
9400
9401
9405
619
9522
9518
9519
9385
609
9444
9447
9443
2488
18961
20650
19983
22458
617
9502
9503
9509
20642
2982
23227
22385
23217
620
9528
9530
9525
34317
18239
4864
33555
33559
33558
5097
31285
34129
34460
9508
22991
602
9393
9396
9397
8262
9379
4284
30437
30434
30436
4347
30944
30387
30941
18234
20717
9433
30433
4738
30168
31577
33068
9407
9413
9493
30943
8013
27112
30900
30954
9450
9457
31265
20647
597
9362
9359
9360
4316
30700
30723
30720
8258
22570
22571
27179
4232
18475
30177
28402
9399
9531
9392
9524
9517
618
9512
9516
9511
9501
608
9436
9437
9440
9428
9442
18252
33335
614
9480
9481
9484
9472
616
9487
9497
9500
9496
19307
9410
9383
4835
33364
33366
33365
2316
19280
19278
19277
4392
31212
31216
31213
2987
23250
11260
23252
5137
33661
31329
34312
4860
31242
33532
33377
9376
32920
31316
22992
2301
19145
19140
19138
4398
20727
31254
22190
9469
9455
4833
33344
32254
33343
18253
31320
4747
9529
33102
32253
31239
2633
21449
19895
21502
21504
27167
18426
18495
30430
30175
30435
4137
9544
18788
29811
19282
8260
31214
9419
9398
27165
884
11251
11255
11253
33101
19142
372
8006
8005
8008
27903
4825
30703
33294
33293
20644
34382
9418
30955
4739
31262
21335
31281
5290
33649
34277
33653
27230
34385
2783
19103
20769
22130
5229
31238
30393
34691
33348
30718
9510
19303
9462
9454
8007
30424
31218
19275
9404
2259
9363
18785
9542
9537
9523
30945
21500
9485
33360
9499
9506
30901
23251
2676
19986
20648
21719
27911
9406
9477
30747
9448
27227
33542
5164
18240
30171
31321
19309
9382
34692
9390
9441
9449
9435
27904
9536
2935
20716
22916
23003
21717
22129
20643
2939
22565
23031
23027
9391
11254
31235
2977
23213
22462
22990
4343
9515
9521
30920
9507
33531
408
8249
8246
8252
23029
22459
30438
29809
21560
2188
18235
18502
18427
33556
30744
4346
30939
30711
30936
27226
8254
18841
8257
29807
27163
11256
33536
13148
2826
19143
22273
20725
34770
20651
30721
30921
9478
9486
18256
22569
33070
27492
30923
27912
27490
22188
22274
23226
33069
4927
33896
31317
33891
30925
33334
33328
2355
19629
19634
19627
30942
4317
27224
30731
30709
5241
27493
32639
34130
33369
371
8004
8001
7999
3790
27751
27750
27747
5389
18434
31324
34856
23253
8003
19281
21451
27744
19631
21452
21503
33071
23212
943
11562
9378
11566
18503
33347
820
9361
10913
9539
3658
9424
9431
26816
9386
23030
21505
3652
9520
9527
26792
3651
9409
9417
26785
9403
3661
9498
9505
26826
9491
27111
3665
9388
9395
26838
33297
3641
9416
9423
26725
3660
9467
9475
26823
3659
26819
9452
9461
2159
18318
18319
18324
26820
9446
2674
20768
21712
21709
18504
8251
31220
3636
26687
9526
9534
3638
9482
9490
26702
20720
23211
3662
9535
9543
26829
2833
19306
22299
21332
3639
26709
9460
9466
9439
26818
3642
9394
9402
26733
5096
30957
31245
33381
19279
30922
5309
21720
20652
31266
33892
9514
26791
2167
18250
18383
18381
3640
9438
9445
26718
8250
4404
30431
31232
31289
1225
13152
13144
13153
4289
30482
30475
30481
26724
30727
8247
23004
2169
18251
18391
18394
2446
19302
20365
20370
26788
2603
21349
21347
21346
3637
9504
9513
26695
22464
23214
33072
11563
30722
4515
20645
30896
31980
4861
31243
21564
30425
2414
20111
20109
20112
30429
33545
19146
2613
21405
20640
21402
30473
26839
33292
18840
18325
26825
9483
5022
33331
27237
34177
2423
20181
20179
20187
26686
8000
30728
2879
22581
22574
22578
11252
20108
4867
30176
18258
31326
33894
26697
26693
10914
2546
21023
19139
21026
3701
8002
27055
27053
26717
30480
4406
18493
31302
31296
11565
22297
5221
34314
27178
34386
34800
31219
33295
31288
33560
26723
2974
22566
23198
23199
18320
26704
26730
26681
21027
26721
26692
26701
34706
23026
22580
3896
28527
28522
28524
30937
4338
22128
30893
30891
19633
26708
26707
26729
31253
26715
27908
20368
20184
26682
31290
34421
30940
26714
33534
13151
20369
18396
4985
27910
34203
33074
21351
19141
26690
33897
29386
34707
30477
30892
883
11246
11249
11250
27752
2509
20796
19276
20793
27054
33578
33577
34769
20797
20794
3824
28020
28011
28016
34324
23032
33530
21710
21711
28528
28014
20107
26700
407
8238
8243
8237
31300
21406
28526
27748
33363
18384
31981
18393
18323
26726
8248
2746
20649
22019
21716
22575
5332
27494
20371
20721
31217
11247
21404
5267
26821
30724
30946
34863
2240
11564
18732
18501
4805
8253
33225
29808
26815
5167
26830
18842
29810
4834
27229
30938
33350
4405
26787
30432
31293
22018
26837
20183
819
10910
10908
10907
4288
19144
30465
21025
370
7997
7992
7995
2971
22460
23183
23185
944
11572
11561
11570
23005
23001
7993
31295
30726
2934
22997
22998
23000
2801
20110
22197
21501
26716
33349
18733
34325
22582
30730
4394
21350
21718
30420
33368
4342
30742
30919
30914
31303
30469
8245
30467
33895
18379
26817
26790
2589
20639
21269
21271
26731
26685
26694
11568
31231
26786
31229
34703
26688
26711
19628
34204
26719
22196
28019
26732
1226
13155
13150
13157
22996
10912
11248
21022
5161
26696
30924
34794
2223
18491
18321
18676
4380
26824
31143
30719
4547
22298
27487
32148
23200
27749
30476
26703
31301
11571
33346
26827
26710
30468
30470
31286
5095
33533
30428
33541
2153
18273
18282
18275
18730
33345
33576
8244
2586
21252
20366
21253
26793
28017
2317
19289
19285
19291
8240
8242
4322
30771
30769
30773
19286
2395
19956
19961
19958
18392
30483
28521
30768
882
11240
11245
11241
27173
31144
2289
19030
19028
19034
31228
2437
19274
20299
20297
32149
33224
33227
30729
33291
4077
27056
7998
29383
5118
34383
27174
33543
31146
2428
19137
20222
20228
18279
20295
19960
19955
3856
28254
27901
28251
19032
19632
20185
27745
2260
10909
18839
18845
13159
8239
2928
22952
22957
22955
28022
21403
22573
33359
29551
30770
3666
26684
26828
26842
33354
31230
22951
33226
18280
22999
21256
33353
20226
20220
18382
10911
28021
3655
26802
26699
26805
30916
30918
2988
23002
23184
23256
33537
11243
2828
21024
22283
22194
2229
18322
18697
18675
2980
23222
23028
23197
30915
21255
22576
34705
23257
3650
26728
26780
26779
4858
33519
31215
33518
20301
2730
21270
21401
21963
11244
3996
27485
29140
29137
22280
2182
18471
18380
18390
5170
30894
30732
33333
4627
32574
22017
32570
13158
20186
3653
26722
26795
26784
3656
26706
26810
26806
11569
2721
20795
21921
21919
32572
3713
8241
27052
27108
29141
3657
26811
26713
26812
18278
4859
33525
33528
33523
2867
22468
22474
22471
5208
27177
34841
33535
22466
2711
20182
21871
21872
4294
22195
30521
30518
3645
26712
26749
26753
3644
26744
26720
26742
3643
26738
26727
26735
26840
4291
30492
30497
30495
4562
32224
32220
32222
2724
21936
21348
21935
28523
26804
2749
20367
13156
22028
4723
33011
27906
33006
945
11567
11577
11575
19957
2141
18177
18181
18179
3663
26683
26831
26789
3728
27247
27255
27249
3648
26772
26689
26767
19290
34420
3654
26691
26800
26798
2439
20318
19626
20312
30524
26782
20223
18844
26796
2307
19195
19204
19197
3646
26705
26756
26758
4857
33362
33516
33513
18731
19031
33522
3647
26765
26698
26762
31227
21961
818
10904
10906
10900
4298
26822
30561
30557
10902
5034
27169
34321
33557
26743
2779
19288
21708
22116
34742
7996
27110
31298
5013
34202
34376
34369
33008
30479
26750
20298
31287
18469
18281
18180
19287
34480
30772
4488
31825
31828
31826
29135
2732
21969
7994
19630
26808
32147
406
8229
8236
8233
27252
18395
31297
2981
22577
23224
22954
21254
21251
21250
22281
20225
26803
34698
19033
30463
19201
26833
8232
34378
22956
22472
8231
4865
28525
31294
33562
20314
11576
4397
30466
31248
31247
2877
22564
22556
22557
11242
34700
22579
27243
26801
2196
18541
11574
18542
20316
34702
20302
3649
26680
26775
26776
22560
2536
20296
20792
20962
26747
28253
22026
30494
4293
30472
30516
30513
26734
4286
30452
30447
30448
26736
26741
22470
26740
26748
31291
30562
30556
2149
18245
18249
18243
26769
5098
31145
33296
33367
4177
29968
18843
29967
23255
19202
30509
26841
28012
30471
2216
18277
18650
18648
18182
369
7988
7990
7991
27245
4337
27746
30887
30890
20959
18544
10905
26760
26768
7989
34372
33517
26755
33524
26761
2565
21132
20180
21137
26773
21131
21136
22473
34478
31249
20315
1227
13154
13162
13161
21918
2788
19959
22148
21933
23223
23221
18276
4340
30905
28013
30904
4320
30757
30750
30753
32219
18178
26757
30522
20227
18248
29136
26783
4334
21920
30867
30725
30755
33355
2773
20224
21932
22100
27254
33527
5035
33893
34322
34484
33357
26745
32571
30767
8234
22117
30869
34374
405
8221
8228
8225
3990
27743
29105
29102
19199
26751
30496
2393
19943
19027
19941
29550
34481
19203
26807
18652
26794
23225
8224
881
11238
11239
11234
26754
4290
30487
21934
30484
2511
19284
20806
20805
22027
32223
2501
20743
19283
20745
30451
22563
4486
31815
31810
31812
22562
26777
31251
34418
19942
23220
21962
31827
20803
11236
2602
20221
21343
21341
30563
18175
33514
34477
18651
3724
27190
27180
27181
3956
11578
26781
28520
18543
19196
3664
10903
26836
26835
26832
4705
31299
32218
32924
31824
20317
26814
30748
30488
22099
26739
31811
18470
28252
26799
368
7986
7987
7982
4832
28018
33223
33336
20300
30870
27109
29095
27187
7984
2471
20533
20539
20537
2936
22467
23013
23008
4856
33361
33512
33504
33009
27241
1228
13160
13166
13165
2255
10901
18817
18819
2328
19381
19383
19387
4389
30464
31198
30520
30515
8230
26774
20807
5272
26797
26746
31292
26737
26763
22098
20963
28886
4390
26813
26752
30474
30478
26771
21345
34741
18247
30514
30517
30453
29097
4760
26809
26759
31142
22282
5187
26834
26778
28023
4603
28015
29966
32445
26770
28889
22149
2916
22465
22879
22882
8226
31203
2162
18347
18274
18343
27189
33515
31200
2612
19029
21400
21396
27244
26764
8235
23010
11237
19379
27240
29969
30512
19939
33564
30455
5372
22029
23258
29142
20538
21344
30511
20741
20746
30485
5101
32573
32150
34704
8227
30560
18344
817
10899
10896
10898
29138
13168
34473
2569
21151
21150
21152
34370
18653
30906
2348
19575
19567
19571
27183
30903
3702
7985
27060
27058
946
11573
11581
11582
2595
21303
20313
21307
11579
27248
20540
2177
11235
18444
18446
19386
20311
19944
5121
30564
30917
34419
10897
23012
30486
23009
31814
7983
2978
23216
22953
23215
34469
19938
30756
32447
22559
31196
2168
18176
18385
18388
33520
3019
22561
23390
23254
27188
33526
27059
33139
18242
20535
33563
32926
18820
33010
21154
22884
695
10075
10070
10071
690
10031
10035
10032
683
9978
9979
9980
684
9989
9988
9987
18448
687
10011
10010
10012
4709
30558
26766
30913
2299
19125
19122
19119
13164
4855
30523
33499
33351
23392
2222
18674
18345
18540
18673
32446
2808
19200
21133
22221
19380
34479
8222
676
9930
9929
9932
21309
31202
677
9936
9937
9939
34373
13167
2774
19198
22103
22101
678
9944
9947
9945
19120
30752
686
10003
10005
10002
33510
693
10057
10056
10058
11580
880
11232
11229
11231
19574
3834
28089
21135
28087
30751
692
10052
10047
10048
680
9960
9961
9962
681
9968
9967
9966
689
10028
10025
10026
2821
21398
22259
21917
9933
19568
29099
18244
34718
22222
675
9926
9920
9924
11230
10014
33356
34708
21305
8223
19569
4830
33317
33325
33322
696
10076
10080
10078
10034
10073
4321
30765
27242
30758
685
9994
9997
9995
9948
31197
33508
18348
10036
20536
19385
694
10062
10066
10063
22260
20804
33341
27253
9923
27186
688
10017
10021
10018
10049
679
9952
9953
9954
2723
19940
21930
21397
28084
27182
18389
20961
9976
21931
30761
20744
22102
33503
27246
2972
22558
23190
23188
4393
23011
31224
30493
9919
9984
31222
10007
2857
22375
22378
22376
21306
31225
9934
10060
3928
22883
28250
28725
9999
19124
2334
19441
19440
19446
10045
10067
2810
21134
22228
22220
32943
21340
9927
9957
2976
22469
23209
23007
9941
22880
28724
5120
31250
34699
34743
9992
10022
29103
22374
10053
9950
28090
22371
1229
13163
13175
13171
11233
5173
21153
34807
29139
691
10029
10044
10040
10037
672
9903
9905
9908
23187
404
8215
8219
8213
30489
10015
9982
23186
4149
18246
29856
29854
13173
22227
18447
18387
23391
2232
18649
18346
18708
648
9732
9731
9734
33323
2178
18342
18449
18452
2844
21342
22330
22329
18451
19388
9970
9902
19442
4710
30559
32947
32945
4969
32221
28890
33561
367
7978
7977
7979
2751
20534
22036
22034
18386
8218
8216
5192
30871
30525
33358
30868
19573
3864
28305
28310
28308
31199
2830
22258
21399
22288
22033
18454
19123
18818
5312
30490
33529
34701
9996
2430
20242
20245
20244
19384
4295
30536
10033
30533
34122
5403
30907
9949
34823
4387
31185
30510
31182
30760
30529
4655
10064
30449
32708
2396
19967
19968
19962
9931
29860
682
9964
9975
9974
9971
13174
9925
2155
18241
18296
18292
10074
28887
21927
10013
29858
4341
30749
9955
30902
4853
33484
33478
33480
28091
30532
2816
19572
20960
22244
22243
19126
33486
4388
10050
31195
30446
10020
31179
31191
31193
9991
9983
21928
23191
30528
33342
9904
33502
20240
32948
5415
22262
30526
30872
9940
9956
32925
19118
31183
2598
19443
20742
21322
30909
5119
33521
30498
34375
2249
8214
18782
18778
4381
31153
31148
31151
21321
10041
20802
5373
31201
22331
31252
32448
9963
9969
10019
10027
10042
30762
18295
4522
32021
29134
32020
2415
20122
20118
20117
32940
5138
34773
34377
34482
5321
10006
9998
33140
18291
34740
23208
4292
21929
30504
30499
34745
10004
9922
9733
2490
20664
19378
20659
4683
18453
28888
32217
20239
23189
34744
879
11228
11223
11226
33485
3017
22881
23385
23207
9938
20243
23384
30912
2970
22373
23006
23180
31190
19127
32709
3783
10072
27700
10079
9907
5165
33565
30454
34475
33501
28312
2925
22370
22938
22936
19966
4682
10051
30450
10059
10065
3712
27105
8217
27057
4385
22261
22289
30519
30908
31181
11224
22935
18706
32710
20119
5001
27185
34302
33352
22037
32833
20113
30505
22379
33488
32950
4146
27061
21308
29096
13170
2144
18205
18207
18201
5012
27251
34367
30754
7981
32834
4895
33007
33733
33732
34483
34303
34719
33482
31175
23182
34474
28086
18780
5185
33012
28726
31816
31813
30527
33340
27702
4604
8220
29100
32444
31187
34829
4493
29098
21310
30886
33326
2286
18999
19000
19006
32707
20662
1846
9935
16609
9943
2230
9906
18699
18450
31189
1845
9942
16603
9951
18203
1844
9973
9965
16597
1843
9972
16592
9977
1839
10023
16570
10030
10039
4897
27250
29104
30888
22287
22245
1837
10061
16561
10068
1842
9985
16586
9993
2918
22896
13172
22892
1840
10024
10016
16574
1838
10038
16565
10046
19008
2591
19382
21281
21280
9959
16600
9958
16595
2184
18445
18482
18481
32023
19970
673
9901
9910
9913
18698
19447
16588
10001
34739
649
9730
9738
9736
11227
34125
32450
18293
1841
10000
16580
10009
33498
22891
2658
19570
21631
21633
20120
27106
1847
10077
10069
16612
10008
16575
22328
22035
9921
16604
9928
7980
30763
4065
29490
28085
29133
29492
32942
2138
18151
18149
18154
16567
10055
403
8209
8206
8210
10054
16562
23179
31223
31194
16589
18783
19002
31174
31173
16568
31226
23210
20660
16560
16613
32452
16593
30503
366
7973
7972
7976
30911
23386
2840
19445
21319
22318
4543
9981
32124
9990
33507
27704
31155
11225
33337
30508
16582
16578
29859
18148
8211
2418
20146
20145
20149
31150
19003
4489
31832
29857
31830
1230
13169
13179
13177
16591
9986
19971
9740
9737
16573
674
9909
9914
9918
30507
22937
18700
33320
20147
20148
4549
10043
30531
31188
28309
9912
16559
4391
31209
30491
31204
22939
33736
16572
4250
9946
16607
30233
32831
16599
9915
5160
21323
30764
30889
18707
13178
33321
4981
32946
34188
34187
16566
29839
32123
5328
18297
29862
31817
16564
31831
2715
19121
21891
21888
20114
32022
27703
34305
16585
21634
5122
33511
31186
34709
29487
18483
21890
22319
16583
18206
7975
30225
30229
5000
27184
34297
34288
32949
8207
2777
21304
19444
22111
4968
31192
33505
34117
19965
669
9880
9885
9882
9881
31858
31211
30534
7974
22110
18484
32941
33318
671
9735
9899
9896
4548
30530
31180
32153
22895
33497
5370
18208
18455
32927
22377
23181
878
11216
11219
11221
5166
16614
16563
32711
653
9763
9769
9764
4326
19007
30797
30759
20663
32836
22320
16571
16576
28307
3765
16594
27552
27556
33735
16590
30800
5099
34712
33500
34711
5288
20665
13180
34806
655
9777
9784
9778
32158
2458
20448
20446
20449
33740
4714
8212
27107
29101
30227
4007
29209
16584
29202
5117
34472
34738
34735
18156
11217
32832
4986
16598
16601
30910
34772
2343
19528
19526
19527
32969
32449
521
3423
522
544
8931
8938
8928
8929
9061
8936
529
3433
530
536
8986
8993
8983
8984
9027
8992
514
515
551
3449
8881
8889
8882
8885
8891
9094
651
9750
9753
9749
16579
2172
18415
9911
9916
654
9775
9771
9772
9768
9760
22897
33506
662
9831
9830
9833
33737
2841
21320
19005
22321
29198
34304
657
9793
9792
9797
4626
28088
32568
31147
2217
9917
16610
18656
34183
29840
2876
22549
22553
22550
2590
20238
21275
21273
668
9871
9872
9877
30803
30801
33743
18413
652
9757
9759
9754
9770
9747
32151
660
9814
9817
9815
664
9846
9845
9849
31829
650
9744
9742
9745
34822
34189
523
524
4255
3432
8942
8953
8947
8946
8951
25593
3427
8940
25563
8939
8934
8945
25561
4891
16577
16581
31184
3771
16611
27604
27599
11222
667
5156
9866
9867
9870
9878
16602
666
9857
9859
9865
512
5388
3431
3421
8873
25590
8871
8870
25531
25526
511
8863
8860
8866
663
9829
9836
9842
1047
3434
3445
4190
12142
25603
12143
12144
25607
25654
1046
12139
12134
12137
525
526
4015
8955
8968
8960
8958
8965
25606
25653
8959
656
9786
9790
9785
948
11592
9748
9755
18147
513
3426
4793
8878
8884
8874
8880
25560
8886
25668
25555
20451
670
5333
9886
9887
9894
9900
16608
9741
9751
9858
9864
516
4771
3435
517
8900
25612
8897
8894
8906
8905
3428
25566
8904
25572
518
8911
8901
8913
28311
4254
8877
25525
8879
25530
25559
8872
8867
3436
527
3840
8966
8973
8962
8967
25614
8975
3447
8974
25660
25613
25602
25604
661
5184
9822
16587
9827
9821
9834
33713
32160
1048
3988
12151
25615
12150
12149
25605
34120
2251
9739
18777
18794
4815
8952
8948
8954
25655
8961
25591
25595
34184
2107
12141
12147
12140
18011
520
5318
3443
8921
8933
8927
8925
8932
25645
25543
25538
532
3448
4252
3438
9006
25665
9008
9005
25623
25626
531
8996
9002
8999
658
9801
9800
9806
21632
9869
9874
25669
3444
9861
9868
25651
25646
22555
2243
18294
18153
18740
20445
3902
25588
8865
8864
25586
25663
9007
8861
543
8935
9057
8944
542
8943
9052
8950
31859
9813
9826
2331
19410
19414
19419
665
9844
9853
9855
9839
9835
1054
1055
2113
12177
12186
12180
12179
12184
18032
1053
3437
2112
12175
18028
12174
12172
12181
12178
1051
2110
1052
12164
18022
12163
12161
12170
12167
647
812
9726
10877
9729
9725
9895
3439
9898
10876
25631
9889
27559
21282
533
8868
8862
9014
2706
20144
21856
21858
19964
21277
9727
9724
9897
3440
25634
9824
9832
9838
9843
3938
3446
25625
9001
9000
25622
25657
8994
8990
8995
25597
25600
2108
1049
18015
12148
12145
12154
12153
1050
12152
12158
12156
540
8964
8956
9044
9096
809
811
816
10857
10867
10858
10860
10871
10894
1058
10859
10868
12202
947
964
11584
11666
11587
11586
11665
11585
11662
962
11583
11652
11655
552
8883
8875
9100
22552
548
8902
9080
8909
549
8895
9085
8903
539
8963
9040
8971
553
8869
9103
8876
814
3900
10886
10887
10888
25528
25587
27553
3420
5417
9823
25519
9828
25524
25635
3441
9825
25520
25637
9820
9816
528
5414
8976
8989
8982
8980
8987
25621
25662
8981
25617
30231
33339
4598
16596
9856
9852
9863
541
8949
9049
8957
9063
519
4091
3425
3417
8920
25553
8918
8917
25504
25498
8914
8926
8924
25644
25500
545
8922
9067
8930
29861
31833
534
8997
9019
9004
1056
2115
1057
12191
12196
12189
12192
18037
12198
659
9808
9812
9807
9819
9799
9003
9013
9050
9791
9798
29200
34123
5224
25620
12182
25596
25601
32125
9104
9010
2807
20116
22217
20241
27607
34205
9029
4080
12160
12165
12155
12159
25661
25616
9048
9041
3830
12169
12171
25619
25659
12176
12166
535
8998
8991
9023
4059
949
9767
9758
9756
9761
11596
950
9762
11601
11593
11591
11588
9860
25608
25611
25650
9848
9854
9851
9091
22109
3747
12188
12193
12183
12187
25656
25598
31835
22322
3786
8912
25568
8910
25551
25549
8907
8919
31857
9076
30232
9043
9037
2095
12197
17945
12195
12194
12201
12200
4785
25565
8941
25537
25542
3450
25539
25562
25671
9097
9099
815
2263
10891
10883
10884
18858
10890
10893
10889
10892
29494
19530
4078
8890
8893
25667
25649
9873
25558
9876
952
3451
3424
2213
11609
25544
11608
11607
18635
18634
953
11606
11614
11612
951
11602
11605
11603
4061
16605
9884
9879
9891
537
8977
9034
8985
9053
9045
9058
546
8915
9071
8923
5198
12199
25627
25658
3870
8898
8899
25648
25609
8887
8892
9024
9015
32970
33483
3430
3453
4182
25581
25672
25580
25585
25679
25674
9783
25547
9779
9780
25545
3829
8988
25618
25599
4184
9818
9811
9810
25636
3422
25517
25536
25523
25533
3415
9809
25481
25486
25479
9805
9802
9018
9009
18657
20121
365
7966
7970
7971
21283
32157
29255
27609
3995
9781
9789
9776
16569
2218
9743
9746
11590
9752
959
3416
4183
11642
25491
11641
11643
25670
25495
25488
25541
18742
30245
3962
9888
25554
9890
25556
25629
25527
25529
4088
3429
25503
25578
25499
25643
25575
25489
25493
25490
960
2202
11647
18578
11645
11646
18577
11639
11638
958
2205
11635
11637
11636
11640
18593
957
11632
11630
11629
954
3452
2209
955
11619
18612
11618
11617
11624
11622
11615
11611
11610
2220
11599
18665
11598
11597
11604
961
11650
11644
11651
956
2206
3419
11627
11631
11626
11628
18598
11633
11621
11620
11623
813
2265
10880
18870
10881
10878
10885
18871
10882
1870
8969
8979
8972
16732
30242
9020
3779
25496
25497
25501
25521
25535
25532
25576
3442
25482
25534
25483
25639
25574
18417
3999
9773
9774
25546
9782
9766
9765
11600
28134
9883
25557
9875
3998
25642
25492
25540
30241
29488
3418
4060
25478
25506
25485
25510
25641
25480
25505
25584
25507
25673
547
8908
9074
8916
4179
9847
9850
25571
25610
9841
9837
19523
9062
18013
12136
29257
2165
18367
18364
18369
4256
25508
11613
11616
25677
25511
25675
3876
25512
25513
25515
25577
25640
25638
25514
25676
25509
11625
32830
9025
9030
9095
4084
25552
25570
25550
25633
25567
25518
25522
25502
28132
32128
28567
2258
10875
18835
10874
10879
9064
9066
9068
9075
550
8888
9089
8896
27558
5068
34597
33479
34595
4779
10895
25589
25666
9787
9794
25583
9796
25678
9788
4151
25494
25579
25487
25516
11634
9028
22894
18012
2273
8208
18903
18779
19417
19412
2198
11654
11653
18553
18552
11649
11648
18412
3933
12203
25664
25624
3903
9840
25632
25569
28564
538
8970
9036
8978
28557
31208
9072
9079
5037
30535
32156
33509
18016
29207
28776
9086
9090
34208
9084
9082
29131
27608
27605
3942
25484
9804
9803
25582
9795
19525
29203
29459
32154
29206
30244
7967
29612
34119
34471
2865
22452
22448
22455
2969
22372
23178
22934
29453
1863
8937
9056
9060
9054
9035
9039
9033
9031
29451
29450
1231
13182
13176
13186
18655
28135
29159
34821
27719
29554
22449
18796
27554
34598
18034
18030
32155
5323
22323
19009
30766
28350
29210
18024
2109
12157
12162
18020
21274
18029
2111
12168
12173
18026
18023
5067
34592
34371
34591
2114
12185
12190
18036
18033
18660
29555
18017
27406
29086
29083
32421
3733
12138
27298
25652
28921
30017
16733
29130
29978
28067
28778
18654
4382
31159
30501
31162
4296
30538
30544
30541
18859
4178
16606
28306
29970
29155
27717
25592
27301
33327
34793
33324
18202
18370
16694
33183
13184
18038
18479
28925
4442
25564
25594
30243
19969
31161
29491
29993
28061
402
8205
8203
8200
34286
30802
30506
21889
18039
18781
29972
25628
28551
28565
9728
18838
28750
11667
22316
18872
28555
1861
9092
9098
16685
16738
29590
28058
9892
29975
9101
16684
28055
28349
27551
30500
1860
16677
9051
9055
10873
17947
29583
1866
9102
9011
16715
11664
10872
28347
28574
29578
29992
19413
1868
16724
9042
9047
18636
30545
2193
18526
11589
11594
11595
18667
5100
33481
34716
34715
1871
9078
9083
16740
29156
29990
3789
9862
25647
27742
9038
16722
34593
18580
29976
4654
27701
32702
32700
9046
16679
18632
1859
9059
9065
16673
29084
1864
16700
9022
9026
29204
29457
8204
8201
27716
29157
1867
16717
9012
9017
27670
18637
29454
9032
16703
18860
18579
18595
1862
9016
9021
16690
17946
27668
29152
23176
23177
18363
28917
18666
28922
29150
29128
18027
16696
27666
29462
18614
18613
18599
18019
18025
18021
27665
9069
16671
1869
9070
9073
16730
18833
18031
27667
29456
28388
29591
18795
18594
18600
18014
28390
3703
7969
27065
27063
27737
18549
29458
30238
28815
34291
16714
28389
2096
17952
12135
17949
2812
22108
22235
22234
33176
18414
31548
28569
9077
16729
28810
16727
18035
28568
16712
28065
16739
9088
27409
32569
2106
12146
18008
18005
28062
28556
5254
31154
33487
34866
29594
28809
27066
2191
18150
18204
18515
28563
31152
33714
18555
18529
1865
9087
9093
16706
18416
2984
23233
11218
23236
16719
16735
18006
33712
28808
4297
30549
30555
30552
28918
29567
28570
2930
22547
22971
22969
27718
7968
20450
4938
30230
32451
33338
27408
19416
18902
29581
27405
34491
29126
29153
28348
18524
27550
18791
4487
18155
31818
29855
34289
28054
16688
31547
19529
2520
20864
19963
20857
34736
19415
17944
27603
16681
18741
18857
16674
5140
32944
27560
34368
16697
21276
28752
22551
17951
10870
32127
16709
16680
16699
10869
3029
23418
13185
22893
2433
20265
20270
20267
16721
27741
22454
2750
19004
21630
22030
2761
22068
20115
21279
2605
20661
21360
21278
29579
16675
16668
27736
18010
28813
16710
4694
22218
20123
31149
34190
27299
29577
16698
23417
8202
11663
13183
21363
18554
16686
18792
28751
18525
18517
16687
4249
25630
30224
28920
29988
33951
21857
3891
28495
11220
18480
16669
32971
5255
27722
9081
33163
3729
27272
27261
27266
28553
18836
18873
31823
31820
18611
29455
33952
18574
18556
4808
29087
29256
30016
29592
28496
33234
34294
18365
18658
27734
2931
22933
22978
22977
32567
18596
16742
29127
22219
29866
16705
34710
18592
5297
9893
28924
34885
27669
22970
3991
28133
29106
29082
3865
28313
28319
28316
22032
4991
34242
33496
34240
16678
2100
17974
17973
17976
16704
4806
25548
18638
29989
2103
17991
17993
17992
2101
17979
17981
17980
2102
17987
17986
17985
22232
32565
2099
17967
17966
17969
30543
33739
18668
4082
29573
16682
29572
20861
2425
20203
20201
20200
5155
31834
32835
34124
4187
30006
30001
30002
5269
28136
29088
29565
31157
29448
29160
4741
30798
33082
33080
17948
20266
18368
5148
25573
27721
29980
34295
4959
34078
32829
34074
22453
27265
28919
2104
17999
17998
17997
29580
31822
2098
17961
17960
17963
22450
2242
18152
18514
18739
16731
2545
19001
21021
21017
16711
22973
17975
29974
17970
5215
29208
34844
34820
17988
32706
4473
31739
29449
31736
28494
16692
30547
401
8198
8191
8193
28314
4582
22554
32351
31221
16695
29463
27606
33078
4181
18018
29562
29085
34075
5036
34118
34470
34488
16726
16728
30542
27263
27300
20858
2278
18923
18921
18928
16723
32349
27602
28317
28552
4251
28775
30236
30234
16670
8199
33319
3857
28257
28260
28258
5033
34462
34468
34466
28573
18009
29984
5258
28566
16720
30239
2173
18411
18418
18421
18874
33734
17964
2190
18478
18509
18513
22067
22069
29552
17965
30540
877
11211
11215
11212
16737
3985
22317
29067
29060
17984
27735
20862
17972
17978
22233
16689
29582
28753
17959
21015
4724
33017
30228
33015
34207
4807
32152
33229
32159
4794
29593
33190
29611
23234
16672
34790
16707
5188
28064
34826
29564
5146
28056
27407
28777
4773
29979
27720
33162
17990
4253
16683
16713
30240
31210
16741
28352
32704
4544
29201
32133
32121
16701
2651
21602
19524
21601
28057
18738
810
10861
10866
10864
29461
21020
4186
18527
29447
29998
29985
2097
17954
17943
17958
22968
10865
10863
30553
18419
16716
19418
16736
2389
19409
19913
19910
29109
5319
16702
34889
28059
2275
18793
18909
18834
28749
18737
28554
29571
29108
21359
2388
19902
19907
19905
16734
32881
16691
18659
27601
34771
29132
16718
4749
33108
33105
33109
4189
16676
30015
16725
28315
29154
5382
28060
28066
34853
963
11658
11656
11661
11659
29158
32130
4471
31730
29199
31726
19912
33165
4476
29971
31750
30226
4666
28572
27555
32122
28575
2736
20447
21887
21982
18000
27064
34121
29986
34599
17953
30799
18907
2287
19017
19015
19011
19904
33175
5112
18528
18669
29452
4766
27557
32420
33149
30013
29161
33106
28571
21600
18510
31728
27297
8194
20269
17957
17977
29991
20197
5162
17989
28063
29563
3380
25309
25305
25306
29129
34596
29065
593
9341
9345
9342
4141
16693
29151
29819
18929
32701
18424
28318
19903
30237
364
7963
7962
7960
34485
18926
4772
28351
16708
29553
27262
584
9300
9302
9301
22972
3369
25255
25259
25256
20202
29062
568
9205
9209
9208
34825
30014
27738
30235
3379
17950
25303
25301
29818
31729
31205
22976
29977
18516
4090
18901
29606
29603
32134
3357
25194
25197
25195
2246
18762
18757
18754
33079
4195
30032
30037
30034
2105
18003
18002
18004
11214
5273
28923
30223
34877
17971
34824
784
10712
10708
10709
34795
28492
2154
18286
18290
18284
27740
2142
18189
18184
18183
17994
17983
17982
34782
1044
12127
12126
12130
32761
779
10670
10668
10669
18837
34588
25196
33164
3360
25217
18868
25215
17996
17968
31753
1818
16461
16463
16462
3359
18575
25210
25209
586
9309
9310
9311
34714
580
9283
9284
9285
29460
27739
5409
18001
17995
29566
33228
30005
23235
3368
18633
25251
25250
25208
8196
775
10639
10641
10640
34239
20268
29999
17962
3377
25297
25295
25296
25308
18869
29996
33231
854
11086
11088
11085
9344
18512
34241
34876
807
10850
10848
10847
29997
3358
25204
25201
25203
5019
29205
34185
34408
848
11051
11052
11056
29107
3361
18576
18550
25222
3355
25182
25181
25180
25304
29607
3356
25188
25190
25189
31738
3354
25174
25173
25172
25307
587
9315
9314
9317
11213
778
10663
10661
10662
20860
9343
18288
789
10746
10748
10747
28814
852
11077
11072
11073
788
10741
10739
10740
3366
25242
25244
25243
28811
34076
786
10724
10727
10726
18423
3376
25294
25292
25293
3364
25234
25233
25235
5264
29493
22456
32024
11055
850
11063
11064
11067
22031
25202
11078
3374
25288
25286
25287
33014
3370
25266
18007
25265
9303
3769
27586
27593
27588
10711
34784
25187
19014
19016
30551
3383
18597
25317
25316
18908
34797
3353
25165
25167
25166
1036
12078
12079
12082
28493
34798
30004
577
9271
9269
9268
776
10650
10648
10649
29987
25221
579
9277
9278
9280
33151
20196
1232
13181
13190
13188
9279
25252
582
9293
9292
9295
25257
581
9288
9290
9289
25214
9211
34463
18185
10725
3372
25277
25274
25275
10642
576
9263
9265
9264
34299
595
9354
9352
9351
855
11090
11091
11093
29973
25198
30036
34292
34796
805
10839
10841
10838
808
10852
10851
10856
25261
790
10756
10754
10755
32880
34872
791
10761
10764
10762
2143
18199
18195
18196
1033
10862
12068
12065
25278
3367
25249
18551
25247
3362
25227
25225
25226
29609
596
9356
9357
9355
591
9332
9333
9334
28255
10738
589
9323
9324
9325
10671
585
9307
9305
9306
2335
19450
19452
19455
21019
33077
9312
32129
18758
2650
19411
21596
21597
25267
2950
23085
22451
23086
12066
3375
25291
25289
25290
857
11099
11098
11100
9281
1045
11657
12131
12133
31751
11660
3373
25280
25282
25281
10643
17955
9286
10710
17956
25245
2738
21989
20859
21272
578
9275
9273
9274
782
10696
10692
10693
10855
9204
25183
9282
12129
9206
9316
25216
588
9321
9319
9320
19453
19914
5106
34206
34366
34725
5020
32126
34412
34186
25220
770
10605
10606
10607
19013
12128
781
10687
10684
10685
594
9349
9347
9348
9294
785
10717
10719
10718
10695
25228
7965
9304
18927
25241
21018
16465
25213
9270
3365
25238
25240
25239
592
9339
9337
9338
16464
22975
9266
18289
10658
9358
27273
34590
2151
18263
18264
18262
9335
10713
9353
25248
10653
34467
33955
10665
25260
856
11095
11097
11096
9313
25205
10763
32132
31724
590
9330
9328
9329
2882
22611
22447
22606
34077
25276
25258
9326
31158
25207
31755
1037
12088
12084
12085
1038
12090
12091
12093
1039
12096
12099
12095
1040
12102
12103
12105
18198
10636
9272
3711
8195
27062
27104
25191
10686
29604
21358
31727
780
10679
10676
10678
10742
30030
25168
11087
33013
10737
10723
25263
10846
792
10769
10771
10770
25177
30550
34465
25186
11053
27264
25237
5345
18425
27610
32705
10706
9346
25284
25176
12081
12080
4934
29489
33933
32566
10734
32131
10664
9267
583
9291
9298
9297
1043
12120
12121
12124
32703
1041
12108
12109
12112
10667
1824
16492
10760
16491
853
11071
11083
11080
11079
11076
29063
18200
25193
2667
19911
21680
21678
9340
18760
9261
25283
3382
25200
25315
25314
25163
9331
773
10625
10627
10626
2875
22545
22538
22542
16493
573
9247
9242
9246
25170
11054
25184
32759
25232
10849
849
11058
11057
11061
11066
11050
25302
11074
21595
4384
21603
30502
30537
33742
25162
9210
846
11044
11046
11043
9287
10608
9336
1042
12114
12115
12117
9322
12132
25164
31171
9262
27258
10623
22539
25212
771
10613
10612
10611
9203
571
9228
9233
9231
9350
9299
10624
10652
9207
9327
10840
10854
9308
9318
876
11206
11209
11210
10651
9243
11092
25254
2534
20948
19900
20950
3378
25298
25300
25299
31156
1823
16487
10743
16486
18261
8192
787
10733
10720
10732
10728
10753
10621
16488
27101
34287
1821
10721
16478
16475
10757
20951
25218
12100
774
10633
10635
10634
10638
12106
12118
4472
31732
28812
31731
25279
9248
843
11029
11031
11033
11030
9230
11089
9232
9227
10749
5201
34296
34476
34492
566
9195
9189
9193
25253
783
10688
10702
10701
10697
9276
9190
9194
31819
25219
10694
34080
3371
25269
25271
25270
844
11036
11038
11035
32760
804
10832
10833
10836
10831
3381
25310
25312
25311
4521
19906
29486
32014
10628
10603
11094
10672
10666
2214
18187
18640
18366
25272
21682
25211
10691
746
10431
10430
10429
25264
1822
16481
10735
16480
25175
31733
9229
4175
18422
29955
27600
9191
13189
12067
9192
564
9175
9181
9179
2967
22548
23170
23171
25313
9176
9180
30031
18930
10680
4525
32035
32038
32037
25246
1035
12076
12074
12075
25236
1825
16498
16496
16497
10768
12122
11207
9296
570
9220
9225
9224
16484
574
9254
9251
9253
16476
1816
10637
16455
16452
18287
21599
10601
19010
556
9125
9120
9124
29061
559
9146
9141
9145
27587
575
9256
9260
9259
554
9111
9107
9110
18190
22967
12086
12083
12094
12089
2733
20264
21971
21970
557
9132
9127
9131
3754
27455
27461
27456
555
9114
9118
9117
9177
9178
12101
10677
34300
34406
558
9134
9139
9138
10703
560
9148
9153
9152
27271
21987
25224
23087
9223
22612
16453
9252
1815
16450
16447
16449
10620
10759
12113
9123
12107
561
9160
9155
9159
7961
9144
562
9162
9167
9166
9257
11084
9109
7964
21361
10675
9129
10714
16477
777
10644
10656
10657
10654
10660
10744
10745
9116
10715
10716
10427
27267
10673
27594
9136
9150
10767
25206
10632
10631
25192
25178
847
11048
11042
11045
11049
11047
851
11062
11070
11069
11068
806
10843
10842
10844
10845
10837
33150
25169
25171
25285
9241
25268
21681
16494
25179
569
9213
9214
9217
2270
18756
18892
18890
19909
10731
10730
11032
25262
33230
18191
9157
27257
11081
11082
3363
11075
25230
25231
25199
25229
25160
25185
29956
29960
25273
9165
9149
10699
10700
25223
10707
1819
10681
16469
16467
16468
10428
27462
16448
9255
9128
12116
10853
25161
11059
11060
11065
9121
18893
12125
9219
16454
10645
845
11041
11040
11039
11037
11034
2729
20198
21959
20263
21014
34489
10751
9250
10834
10835
9142
10602
9135
9163
9113
10752
18193
12097
12077
12073
12119
16490
9240
12104
9212
9202
33016
567
9197
9198
9201
10736
9156
2776
20199
21016
22107
33932
565
9183
9184
9187
563
9169
9170
9173
9140
9106
9119
9112
10689
8197
29605
9218
9249
2665
21671
19012
21670
572
9235
9236
9239
9133
21362
9126
9154
9105
29958
11028
4910
31821
33817
33731
1817
16457
16459
16458
16489
10647
9245
10659
9216
9215
10646
10750
10758
9196
9188
1820
10704
16473
16471
16472
9147
10729
10722
16485
10655
9174
9182
9161
9168
9151
27103
9108
30007
9130
16479
9122
10683
10682
1034
12070
12064
12071
12069
12072
10698
10690
9221
9222
9234
9226
2233
18710
18188
18420
9137
9143
12123
9258
10766
10765
9115
9164
10629
30035
28259
772
10609
10618
10615
9200
9199
34594
21668
9158
9185
9186
9171
9172
34487
12087
12092
12098
5330
34493
30038
34747
10630
12111
12110
16474
747
10426
10436
10437
9238
9244
9237
18642
5299
31160
20863
30554
19456
18641
21958
32017
32015
34737
2926
22941
11208
22942
20949
32018
34746
10604
22610
400
8188
8184
8185
18197
16444
1233
13193
13187
13194
27591
31170
10610
10674
2625
21459
18925
21457
10614
19451
10617
10622
27592
16483
32016
10705
10433
22944
10619
16482
21957
21956
2499
20732
20730
20729
10435
363
7959
7956
7958
4095
18761
29602
29623
2966
22541
22966
23167
16460
7957
20946
23168
16446
29628
4383
31163
31166
31164
10434
875
11200
11204
11202
16470
2434
20274
20271
20276
21988
30548
22544
18709
4700
31207
32348
32906
18891
16456
16451
16466
3918
18511
28666
28491
29624
768
10588
10593
10592
2185
18260
18489
18485
4386
30539
31177
31176
4331
30845
30849
30846
20734
10616
33815
2572
19901
21165
21169
32350
22940
34410
22607
2324
19342
19347
19349
8189
21669
3897
28538
28532
28533
16445
21598
34835
763
10554
10550
10553
34409
761
10540
10535
10539
8187
32909
2208
18186
18606
18610
27459
4726
30003
33019
31737
19346
23166
13192
21167
28668
759
10525
10521
10524
2152
18192
18272
18259
31734
33232
765
10565
10570
10569
4323
30780
30777
30779
33931
19345
21170
749
10451
10449
10445
2276
8186
18910
18759
762
10542
10543
10548
18639
28536
21460
20279
19448
28534
18605
18924
10591
767
10579
10585
10584
21461
753
10480
10475
10478
758
10512
10513
10518
31168
10446
16495
4332
30855
30851
30852
2596
19908
21314
21312
30776
4801
33210
32036
33209
764
10557
10562
10556
34490
766
10573
10574
10577
21311
750
10457
10459
10456
11203
760
10527
10528
10533
10516
10571
30848
752
10471
10467
10468
34717
29064
5046
29066
33107
33741
754
10482
10483
10488
10589
20735
33934
11205
4336
30878
30882
30879
3011
22543
23359
22974
2181
18285
18465
18467
5421
34244
34298
34306
5076
34301
34290
34407
10486
4892
29608
33715
31752
756
10496
10497
10501
5191
29959
31740
34079
30774
10538
18608
33020
10552
2163
18194
18283
18353
30857
10541
10534
34528
33953
769
10432
10598
10596
10450
362
7954
7948
7953
2322
19326
19331
19325
27458
20278
7950
10511
18266
4854
33491
33489
33490
10444
5393
32019
34600
32882
18488
10549
10503
10555
10564
10572
2252
18755
18799
18801
21672
20952
10520
10526
748
10439
10442
10443
10466
28261
21960
10523
18802
27269
10474
22943
31167
10578
34411
4478
31767
29957
31764
10460
2965
23163
22540
23161
10473
22609
19327
31165
30883
33021
2366
19723
19722
19721
4742
30033
31725
33085
10583
18798
5236
29610
32039
33956
18269
27270
10563
27275
21973
757
10505
10506
10508
10495
4371
31096
31092
31093
10600
745
10425
10421
10422
4324
30784
21679
30783
23169
10441
755
10491
10493
10490
10481
4474
31744
30000
31743
4829
33315
27260
33309
20273
399
8181
8178
8182
4056
27102
28256
29432
10560
10479
33314
31097
4664
27590
22546
31206
10546
32907
29625
10519
1234
13196
13191
13198
5406
27274
33081
34243
10452
10438
8190
10547
18607
31169
10568
33212
27256
18911
19341
30854
30775
18349
33492
10587
10531
28529
2864
22445
22439
22443
5336
10489
31735
33233
30778
10517
31178
18466
7955
34893
5077
34622
34464
34621
10576
2358
19654
19659
19658
33717
21972
22442
10532
10461
18609
18351
751
10462
10463
10465
10453
27452
30847
11201
2359
18922
19667
19661
23164
2958
21168
23084
23128
30880
19664
28669
4335
19348
30873
29059
19653
31766
2770
19454
20275
22092
31765
22608
32751
4102
29668
29666
29667
18270
5248
10594
29627
31754
4375
10502
30029
31116
10586
34589
31742
21313
31120
10472
2579
19344
21207
21211
27460
31119
19725
27453
29433
31746
2445
20360
19449
20364
10487
2694
20947
19328
21798
21458
4373
20277
30546
31109
23165
858
10440
11104
11103
18803
31099
8183
33214
31107
10447
21800
21667
10561
10510
31172
8179
30858
10494
10504
29626
3704
8180
27068
27071
34620
29665
19652
10509
31108
2267
10597
18880
18883
13199
10424
33718
2695
21166
21806
21805
30844
23360
32748
31117
11106
29662
2531
20930
20935
20929
31747
18797
27069
20361
34618
18265
5047
30856
33954
34530
11105
29670
21209
33816
30876
30788
19329
19724
19660
31121
30884
23162
2339
19492
19488
19485
2901
22604
22769
22770
3583
10590
10599
26403
868
11161
11164
11160
5282
28537
27463
34789
3587
26416
10458
10464
10470
22446
18468
4583
32013
32357
32358
7952
19657
32355
874
11197
11198
11193
3570
26353
10536
10544
2913
22860
22866
22863
20933
7949
4372
31101
31105
31104
30786
21803
19493
33495
4379
31139
20733
31138
3913
28648
28643
28647
2908
22830
22605
22826
33494
18354
1071
10448
10454
12272
26417
3578
10551
10559
26386
10545
11159
31106
3584
10492
10500
26408
10484
33313
22438
803
10423
10829
10595
31095
30875
33311
3573
10530
10537
26363
26404
11194
10582
34527
21210
33716
19718
32749
3554
26265
10522
10529
10514
22091
27585
34903
26384
3566
10575
10580
26331
10567
21206
34531
398
8168
8177
8176
18881
5364
30885
30781
34413
3563
10558
10566
26317
8171
11102
33213
869
11168
11101
11170
8172
19489
8170
3585
10477
10485
26410
26364
3560
10507
10515
26302
19666
29661
22824
21804
10498
26301
13197
33086
4850
33464
33459
33460
28535
26316
2614
19663
21407
21412
4851
33467
33472
33471
2814
21797
19330
22239
11165
22772
2702
21838
19655
20731
33316
4327
30804
30812
30805
26407
26333
2226
18267
18687
18486
3568
10469
10476
26343
31118
33462
3957
18800
28896
28891
26266
26345
31141
5103
34723
34293
34713
21799
26352
26341
30782
20362
4905
33781
33789
33782
18882
10830
28897
28895
26411
12271
26351
2627
20272
21473
21472
33455
26415
20363
11158
30809
26405
21801
22767
11196
19487
5102
34486
34721
34720
22766
1072
12278
10455
12275
31090
361
7943
7945
7947
34724
4508
28530
31763
31944
33084
31745
21837
2237
18722
11195
18487
29663
31945
26314
22827
12268
2238
18268
18350
18725
30850
26402
26263
11167
23127
34619
4475
28665
18271
27454
31100
2927
22946
22950
22947
21410
31102
3574
10581
26367
26371
11166
26313
22440
26262
2848
7951
20931
22343
21469
21839
18685
28644
2578
19343
21204
19719
33473
26387
19491
3579
26388
10499
26391
4518
28667
31997
31994
26330
33312
26340
33468
33791
19665
31995
22444
4750
30853
33112
33110
7944
1235
13195
13203
13201
22240
12277
30811
26342
26366
34722
2293
19062
19064
19068
21411
31140
31749
2247
8169
18770
18763
26299
33493
12276
4492
31850
31856
31853
3248
11163
24592
24591
21201
22865
22238
802
10827
10824
10823
18688
31946
27070
29431
18767
19063
29669
26315
18727
4584
32362
27589
32359
2653
19720
21613
20928
26354
22949
20359
11169
12270
31103
18765
26332
4748
26267
30881
33083
32354
866
11148
11152
11149
4827
27259
30785
33305
8175
4628
27457
32577
28531
867
11157
11153
11154
31091
2726
19490
21796
21946
33784
3725
27202
27196
27199
33103
21471
21611
4374
31115
26406
31110
28645
28894
26368
3775
20932
27639
27635
3710
7946
27099
27067
33111
30813
10828
2302
19155
19152
19149
33302
4185
11199
18723
28664
18352
33470
31943
22771
26409
31111
22864
26385
4353
30987
30992
30989
2850
19656
22351
22348
32575
26365
21944
24593
18686
18724
2856
22362
22369
22365
18728
11147
33306
4441
28893
31546
31543
26318
4301
26300
30587
30585
5038
34495
34498
34496
21202
19151
21836
22342
22341
33104
32908
33814
31545
26370
3217
12269
12274
24487
22829
31947
4967
32750
34116
33929
22364
3181
11162
24285
24288
2951
22441
23090
22945
31112
19066
4147
29847
29841
29845
27194
27204
5045
27268
33310
34519
24485
2942
13202
23043
21802
24486
34524
26264
19154
26390
21943
1073
12283
12284
12282
12273
29994
33787
30807
31855
30589
23044
31114
20934
21610
3826
27451
28043
28042
2268
10825
18879
18885
5107
21212
30787
30877
31748
8174
18769
873
11189
11187
11192
24284
28038
22349
3559
26295
10826
26296
32352
11190
4725
29664
26344
31741
21941
2504
19662
20765
20761
3580
26339
26392
26395
34529
27637
18766
4302
30597
30602
30599
3548
26229
26227
26228
26294
20759
11151
26389
27100
30588
27201
24488
19069
33463
30598
2427
20211
20210
20217
22823
33457
22948
30592
31098
23089
27098
31542
29995
27638
18726
2481
20603
20606
20608
3544
26199
26195
26193
34526
2365
19717
19711
19712
360
7941
7940
7938
24287
11155
8173
31941
26194
4303
30605
30613
30610
33018
26225
2170
18401
18399
18398
26394
865
11142
11143
11146
2991
22366
23269
22768
33788
24286
1236
13206
13200
13207
22347
30604
12281
28040
19147
31540
30614
22861
2187
18496
18497
18500
30584
18884
2624
19486
21456
21453
23268
27193
30991
33456
11141
33301
22350
3228
11150
11156
24530
2431
20251
20246
20250
12285
397
8166
8162
8163
3558
26291
26261
26288
20219
20607
34520
26197
3551
26244
26245
26243
30607
33304
26396
4964
34100
33211
34099
3542
26175
26174
26178
3547
26219
26217
26223
34525
4258
26369
28892
30254
4299
30571
30567
30568
2853
19067
22356
21208
11188
18499
21470
22368
2823
22267
21835
22270
20253
20247
3541
26160
26163
26167
7942
4759
21205
30874
21612
26297
26292
26397
19153
21409
22825
29844
33137
31998
18397
801
10822
10821
10820
21454
30990
18886
18768
32363
26226
30810
3575
26298
26374
26373
8165
8167
3040
22862
11191
23449
29843
4781
22241
28646
32353
2905
22797
22803
22798
29846
24529
13205
26176
24283
31942
28039
20763
30601
33138
30253
18400
33783
20218
4325
30796
30791
30795
2757
21940
22055
22056
30603
26169
20215
26192
30612
20764
22800
26190
23267
3961
23045
22828
28642
1074
12279
12289
12290
2699
19713
21825
21408
864
11137
11140
11136
26170
3186
12280
24322
24321
24282
28914
23451
20610
30565
26221
2786
7939
22141
22143
24324
26162
26375
31854
872
11182
11186
11183
3577
26224
26379
26382
32361
22801
26171
30986
26216
26166
23088
24325
11145
11184
4333
30866
30806
30860
2615
21414
21417
21413
5080
33469
34634
34632
5040
32356
32364
33930
11139
22269
359
7937
7933
7936
793
10776
10775
10773
19715
2722
19065
21922
21926
863
11132
11131
11135
2852
21609
21203
22355
21823
2254
8164
18816
18764
20609
22057
21923
4840
28041
33406
33404
4376
31126
30586
31123
26372
20249
30985
33458
18812
18815
396
8161
8159
8156
1075
12286
12293
12296
22268
30859
26289
12294
21416
10778
11130
4365
21942
31058
31057
26380
4068
29504
29507
29506
20214
18498
862
11129
11124
11125
22363
19150
4826
26198
30808
33299
20255
4845
30609
33432
33437
1237
13209
13204
13211
30794
11127
30570
31094
20760
5159
31948
34623
32576
21945
4920
30591
33858
33466
8160
20605
33435
4852
31113
33465
33476
33405
31996
2306
19187
19192
19189
26177
2871
22508
22504
22511
34113
27200
7934
34098
33786
28916
33136
27192
3705
27073
27076
27074
30789
31060
12287
3214
24476
11138
11144
30590
26196
24474
4328
30824
30822
30817
21924
4064
29485
26393
29479
7935
28036
8157
11185
31544
19194
23448
21455
22506
22510
30865
33790
29482
2604
21357
20212
21354
3042
23266
22367
23456
33298
26168
24475
13213
33861
27195
3571
26218
26293
26356
8158
30816
3187
24332
24281
24331
26222
11123
3848
28194
28198
28196
4378
31132
31136
31133
5079
33461
34629
34628
10777
26376
794
10772
10783
10786
26247
3161
24108
24114
24113
11128
19191
4355
31005
28037
31001
26246
26220
33785
33855
31059
34497
21353
30792
26290
26381
34115
4362
19716
31042
21824
34633
24329
3561
26164
26306
26303
10782
11134
30863
2443
19148
20347
19710
30821
31134
22142
2405
20038
20044
20040
22799
30595
24109
2712
21876
21877
21875
2892
22693
22690
22695
26383
12295
4145
20252
29836
27636
395
8152
8153
8146
29483
30596
21873
2914
22868
22871
22870
31125
24328
871
11177
11181
11178
2493
20687
20686
20690
2309
19214
19219
19220
33177
30566
28195
4491
31845
20254
29842
2621
20213
21443
21440
30862
24333
2775
20762
21822
22105
20216
24323
22688
22144
30819
20042
31006
11180
3196
12288
12292
24388
18814
20343
2735
20604
13210
21980
8147
21981
21977
4828
30608
33300
33308
29481
24320
10784
2946
23066
13212
23042
27075
33475
31046
20684
20689
19221
20043
31004
31003
26308
21355
5055
30611
34562
33303
29508
33474
8149
22505
26307
19193
30793
24110
21925
26355
1076
12301
12291
12300
31002
22869
3173
24222
24219
24220
861
11118
11119
11122
3210
11133
24450
24452
11126
19188
19217
22507
31044
3553
26191
26258
26255
358
7927
7930
7928
31848
31061
31849
24386
31137
5171
30993
22804
31999
26304
1077
12305
12306
12304
10785
4699
28915
32360
32903
24115
24326
3552
26172
26215
26253
34521
22873
8151
860
11113
11117
11114
1060
10774
10780
12211
3539
26143
26149
26144
24453
4234
23450
29505
30179
21356
34499
21441
19216
3555
26242
26173
26270
22512
30818
11112
2707
21821
19714
21860
4690
8155
31852
31541
32862
21978
3001
11179
23320
23318
12297
31135
31124
3572
26165
26287
26361
28200
21352
26260
20349
24215
24221
2680
20248
21742
21740
2663
20685
21658
21661
2883
22613
22617
22618
29835
33434
24387
2447
20377
20372
20374
33859
21657
22694
29484
24454
4743
19222
30569
30606
12299
33088
21880
24330
20037
7932
11120
26360
27198
26272
26252
26250
22696
22872
24218
19190
21743
1238
13208
13216
13215
20345
33407
30180
4675
8154
27077
31851
20378
32905
26145
26257
22614
32904
26248
28197
33856
26146
23067
11115
5379
19223
22106
30572
1061
12210
10781
12214
795
10779
10791
10793
2737
20346
21415
21983
23321
3556
26273
26161
26278
29837
21879
20041
1078
12313
12311
12312
33307
24223
12302
2345
19547
19185
19543
4824
33290
30600
33288
12310
4681
30988
32825
32824
3878
28399
21979
28393
22620
2409
20073
20071
20075
20379
20373
2272
8148
18898
18813
30823
3215
24477
11116
11121
33087
24451
33090
34627
5199
10787
28202
26357
26274
22691
3709
7931
27095
27072
31047
33436
22619
22802
2804
20688
22207
22206
30181
31846
32791
32827
2795
22173
7929
22140
19545
859
11108
11110
11107
4307
30649
30593
30646
4550
32164
30790
32161
21659
20072
3169
24107
24181
24188
23065
21986
24479
28397
5225
31007
33792
34500
32790
12215
24187
10792
3185
12298
24316
24313
23319
21741
12303
2330
19402
19403
19406
1239
13214
13220
13219
24182
21660
4312
30686
30689
30687
10794
3997
29146
26305
29144
8150
27096
4752
30815
33115
33114
33089
26259
30684
3194
24111
24377
24327
3726
27213
27215
27214
32163
21442
4329
30832
30825
30830
34630
2294
19071
19078
19073
24318
24478
3026
22509
23411
23063
26362
31122
31043
19408
22208
5054
27197
33433
34557
3565
26249
26323
26327
2811
22231
19218
22104
10789
4993
30864
34096
34253
24376
2868
22476
22477
22483
31847
2420
19186
20164
20160
33408
357
7925
7922
7924
11111
12308
24319
18899
2660
20344
21645
21641
2885
22635
22503
22628
26329
29147
4751
26254
28199
30861
30650
28201
34803
26269
26277
4309
20348
30594
30664
19400
2384
13218
19872
19869
20376
7923
3576
26148
26268
26378
26271
2617
21421
19215
21426
1079
12307
12318
12320
27220
27219
4843
33426
27191
33427
4300
30582
30577
30580
22636
28401
19075
22174
4377
31130
29480
31129
22230
12213
22204
18900
24216
19546
21985
394
8145
8141
8142
4997
30820
34268
34097
3567
26147
26338
26256
27217
31127
21984
3195
24378
24217
24383
2781
20375
21859
22123
19874
2748
21439
19405
22023
30647
31045
8144
8143
24379
12319
22631
22482
22475
24317
19540
30690
19868
2920
22867
22615
22909
1283
11109
13446
13443
3010
22692
23317
23358
4304
30615
30623
30620
3204
24112
24184
24427
2619
20039
21434
21432
30581
30619
24186
32863
2755
20074
21874
22050
5292
24224
31008
33409
21423
30827
24374
23409
32828
21643
30573
4369
31084
21878
31083
27208
1062
10790
12218
12212
20162
24375
13447
24382
19074
26328
796
10788
10798
10800
30688
12317
22025
3198
24183
24385
24400
26334
22629
3039
19873
13221
23064
2416
20124
20132
20130
30831
24314
3994
26276
26359
29120
5401
27097
7926
29838
26337
33113
30829
26377
3734
27308
27304
27305
34555
5239
33860
27203
34635
34855
21644
22908
33425
23408
23446
32794
22175
3817
27961
18897
27955
19871
10796
27957
29117
29123
12217
13444
32792
30622
24384
22229
4308
30655
30660
30658
20128
27303
22172
3231
24315
12309
24541
33424
2932
22987
22689
22985
30666
34269
21425
393
8140
8131
8134
30182
29121
21642
22049
3540
26152
26153
26159
12316
34252
30642
20126
26326
8136
8138
5039
32826
34494
34114
22479
27205
3159
24095
24091
24090
24426
33477
3776
27647
27640
27649
19544
4364
22205
31055
31053
27307
22633
33116
31086
34561
33289
20129
24539
3545
26203
26207
26201
30576
21433
2518
20847
19401
20070
22979
4330
19407
30839
30814
21424
24096
30621
27650
356
7921
7916
7920
19077
3581
26400
26251
26324
10799
29148
27959
3175
13445
24235
24238
24540
26335
24399
21422
19076
22122
29145
20163
27311
1240
13217
13225
13223
24233
27960
4594
32411
28396
32407
7918
20844
27651
30843
3582
26275
26358
26401
1080
12314
12323
12324
797
8132
10807
10803
3226
24185
24524
24522
23410
22634
4839
33401
33397
33399
30645
5057
33857
32165
34522
22024
34560
31131
1063
12216
12224
12221
32793
27309
24397
2921
22478
22915
22616
10797
26155
26157
27216
30616
3706
8135
27079
27083
26156
23357
2754
22046
19870
22047
28395
27085
34502
27218
34556
2453
19541
20422
20159
33428
4662
22481
32737
32736
10805
3165
24147
24154
24152
24092
22907
30654
26202
24398
27644
24089
10795
2369
19744
19743
19746
22905
5311
12325
26279
29149
2899
22754
22756
22752
4634
32608
8137
32606
7919
12223
20423
4370
20131
22124
31041
24521
22984
30838
20846
26205
4354
30683
30997
30994
4774
19875
23447
28398
30999
30653
30578
30665
29125
3227
24380
24528
24527
20421
34558
22982
26204
26399
30617
22986
27210
32609
19742
19745
34501
30833
2669
21687
21420
21686
1282
13441
13442
13440
24425
30659
13227
5281
30691
34631
34854
2486
20632
20633
20635
24236
4366
29119
31065
29143
2716
7917
21892
21895
20845
20161
21893
24148
30835
24094
19072
20637
3197
12315
12322
24393
2284
18982
18984
18986
1081
12329
12331
12330
20125
27643
10806
3034
22632
23430
23407
31088
24390
22048
30842
12321
12332
31089
4847
30579
31128
33443
22914
2456
19542
20437
20440
34270
30583
22757
2400
19070
20001
19998
24153
3167
24163
24164
24170
10802
4848
29122
32162
33445
21688
27956
3588
26325
26418
26398
33398
2280
18943
18945
18946
13224
24167
4678
8139
27084
32789
24395
27306
32811
24526
24237
5072
30834
34254
34523
22758
31066
3549
26232
26231
26233
18980
2656
21622
19404
21623
26151
12222
24396
3233
24093
24546
24381
355
7915
7910
7912
4846
28400
33439
31054
32410
3557
26154
26280
26285
22912
32607
20003
1281
13435
13437
13438
26283
33422
34272
18981
18987
24169
22753
33444
7911
20420
33402
33449
33446
20638
3020
23394
22480
22980
33429
13436
32809
2999
23309
22630
22906
32808
4646
30618
32662
31082
31068
3183
24297
24301
24299
24525
27641
18944
30998
19996
18942
24146
24394
31062
3047
13226
23445
23468
27648
20418
22911
4708
26158
32935
30828
30648
4439
26336
30826
31531
21624
20436
27212
23310
23308
32937
3546
26200
26210
26214
1082
12336
12337
12338
2540
19741
20980
20982
2809
20127
22223
21685
31064
22225
33448
32409
20843
27958
12327
12326
392
8130
8127
8124
798
10801
8133
10812
32661
3352
10804
25158
12220
34567
1241
13222
13232
13230
22755
26282
19997
30657
4358
24523
30574
30685
4100
21894
27302
29655
21689
3158
24086
24081
24084
24545
3249
24538
24392
24595
27082
7914
24171
10811
24168
8125
8129
31027
26284
25157
4074
26206
29540
29118
4363
31050
22913
31049
29652
18985
24080
10810
26234
3234
24550
12328
24547
30651
27642
13231
3543
26179
26150
26185
4849
30840
31085
33453
27646
30996
31087
2884
22625
22622
22621
4062
20636
28394
29464
33438
24302
5334
24155
24303
30692
2349
19581
18978
19576
3206
24433
22983
24234
29467
24150
26213
4313
19747
30643
30662
31000
5289
27962
32610
34255
3178
24261
24256
24258
30696
13439
32659
22226
18947
22623
29465
34881
2354
19622
19619
19625
20438
24391
24548
24594
31532
4841
27211
33415
33414
24432
24596
1064
12219
12226
12227
24257
12335
24259
20848
18948
1083
12333
12342
12343
33411
31063
3720
27127
8128
27081
5071
27310
33117
34271
31026
20424
3038
22981
23444
23393
23443
2367
19728
19730
19726
26188
33417
31052
29542
4350
30663
30962
30959
2849
20000
20634
22345
13229
2915
22750
22876
22877
27206
31028
2718
18983
21902
21905
32939
24087
3719
7913
27125
27080
26286
26419
26211
25159
22875
2895
22714
22722
22717
29468
33395
32938
19731
30965
3341
10809
25126
25123
391
8122
8116
8121
20983
26208
4359
30575
31031
31029
5298
24549
12339
29124
4352
20002
30976
30644
31067
2944
23058
22751
23056
2533
20419
20435
20944
32810
33450
799
8126
10816
10808
354
7904
7908
7906
23441
12344
2350
18979
19589
19587
12345
25122
4257
30251
30248
30247
3229
24166
24533
24531
26181
26186
1242
13228
13236
13237
19582
3244
24151
24580
24544
22626
31024
1280
13431
13432
13434
2374
19790
19785
19786
4731
23311
30656
32408
3707
27090
27078
27088
23054
19580
24085
4954
30841
34045
34043
8119
27087
4929
32807
33904
33903
24255
3223
24298
24510
24512
3232
24149
24300
24543
4955
34060
34057
34058
25127
20984
4713
30837
32966
32962
8117
22721
24581
29654
29543
2682
20631
21749
21747
19624
1065
12225
12230
12233
13234
22719
7907
27086
30979
32660
29538
30252
19733
24088
2408
18940
20064
20068
30693
30961
29544
27207
22874
4838
27209
33389
33287
24083
13433
21904
34047
2502
20747
18941
20752
2575
21183
21188
21185
20439
19586
21748
3208
24389
24440
24441
33040
24532
7905
20945
12231
12234
22224
26189
22878
3224
24165
24515
24518
3180
24272
24277
24279
24542
20750
4305
30628
30631
30630
10814
19578
4306
30640
30634
30638
24513
31025
22344
23055
30641
31533
8120
13235
3176
24241
24239
24245
33451
4823
27645
30995
33285
24511
2860
22398
22402
22405
2296
19090
19097
19093
24280
24244
30625
3748
27413
23442
27410
19588
33907
30695
24442
19784
27412
5056
33447
34559
34565
32967
24260
1084
12340
12349
12351
33452
3211
24456
12334
24460
12350
30636
20069
32936
33908
19623
33286
21903
3012
22624
22910
23362
19620
24274
12341
3586
26281
26414
26413
30250
20063
24514
30624
20943
26184
10815
5025
33423
34434
34432
31051
4758
8123
27128
32806
3564
26209
26230
26321
34563
29466
24579
22407
30963
26183
4510
27126
7909
29651
30697
23057
19089
33906
12229
20062
22716
12232
2692
19999
21790
20981
3166
23440
24159
24161
24276
3163
24132
24135
24134
5104
31056
29469
33441
5340
33403
27222
34503
25125
24156
21187
22346
21750
27091
29653
24278
30639
22720
4844
30629
33431
33421
24439
33442
24136
19727
24457
24459
30661
21789
27089
19732
33135
33384
19584
3203
24420
24422
24424
1279
13430
13426
13428
3242
24243
24572
24575
24517
3202
24254
24240
24417
30982
4311
30676
30680
30677
3207
24082
24437
24434
3171
24198
24205
24204
22401
30249
4446
30652
22627
31048
30964
31569
34049
24200
24128
24516
34059
24438
34041
32965
4310
30667
30632
30671
33413
24573
27414
24131
30678
31030
33041
353
7903
7897
7902
24162
4645
20751
32656
30836
24423
31958
19098
2476
19577
20571
20574
30670
390
8115
8113
8110
24418
12348
1243
13233
13241
13239
24160
24201
30984
34046
3801
27827
20067
27826
800
8118
10819
10813
24435
24129
19791
7901
7899
5128
27221
33400
33416
24195
13243
1085
12346
12355
12356
33430
1066
12228
12237
12241
31957
4264
26212
30271
29536
30673
8112
4079
26412
29561
29559
22406
30681
12239
4367
29537
31074
31071
13429
3550
26241
26180
26237
30273
24126
21186
3236
24242
24555
24557
33902
30274
10818
32964
33134
24415
34056
20573
20575
26320
4545
32140
26187
32136
24196
2725
21746
19621
21939
8114
8111
32657
2697
20066
21815
20748
31530
30978
24574
31075
24133
24458
2642
19579
21550
21549
31572
3024
23404
22718
23402
19091
34754
29560
24421
5378
21189
30966
32663
2436
20294
20288
20290
25124
29556
27828
26322
23363
31566
24416
24436
13240
3182
24295
24292
24293
20292
20289
12357
30633
2634
19585
21507
21508
33385
2889
22663
22664
22672
31073
19590
12240
24556
2758
22060
19729
20942
21551
20572
3222
24505
24507
24506
13427
23403
24202
27830
2956
22715
23122
23117
32138
26240
24158
22669
21813
22059
4360
30637
31033
31032
21814
26239
4236
30186
30189
30188
24290
7900
3184
12347
24308
24305
3885
28440
28446
28445
23120
30626
24275
22399
4368
30627
31081
31077
2463
20481
20485
20484
30682
2817
19788
20749
22246
34063
24509
22404
1086
12362
12361
12360
33388
28449
33392
386
7898
8091
8089
3846
28176
19096
19789
30983
12353
4909
30672
33396
33810
3333
10817
25081
25078
388
8101
8099
8102
2949
23083
13242
23053
30668
24291
387
8095
8098
8097
12352
28180
21506
33812
21509
20482
385
8083
8077
8078
2670
20065
21184
21691
3230
24419
24535
24534
8084
5181
34051
34568
34606
31069
24294
24296
2482
19583
20615
20611
27825
29557
24199
30187
20287
25080
3562
26182
26312
26309
4818
29541
30272
33247
23118
4001
29165
29171
29166
21812
28181
28450
33249
4361
30669
31039
31037
8085
24310
12238
22665
27411
31035
24536
8092
1278
13424
13425
13423
2300
19135
19133
19132
24309
26319
2693
21795
20941
21794
5073
30980
34608
33440
21937
29167
28183
12236
31079
8087
4047
29399
29396
29398
19130
3199
24273
24127
24402
24401
21791
21690
2686
21764
19787
21762
8079
8076
34433
3873
28375
28373
28374
28370
19095
4490
29539
31841
31070
4356
30635
30674
31010
2451
20406
20401
20404
26235
5285
32658
27829
33454
22668
33250
20612
22670
21694
34062
34053
31080
34610
23361
20483
23121
3168
24175
24180
24178
5418
21553
30699
30967
22058
24508
24203
20402
3157
24077
24076
24078
34564
3219
24496
24197
24497
8082
24537
1087
12367
12358
12366
351
7892
7889
7890
30185
5058
33905
34048
34569
3193
24157
24368
24373
1277
13419
13418
13422
31009
33394
24370
20613
8096
24176
24075
5405
32968
33909
34605
31034
24403
31837
21938
1067
12235
12246
12245
3162
24123
24120
24116
32139
3225
12354
12359
24519
19094
21763
31568
1244
13238
13246
13245
13416
3220
24130
24455
24500
28448
2890
22400
22677
22679
33811
24312
23082
3200
24289
24409
24407
20291
24498
12243
4589
20293
32387
30977
2329
19398
19392
19394
24405
28369
4566
29558
30246
32245
21510
28442
5074
30698
30981
33390
31038
13417
8090
25079
24307
24499
24306
24404
3160
24102
24097
24106
19131
24174
31036
34899
1088
12363
12371
12373
26311
34571
31840
24072
21792
4644
32654
30960
32648
32646
2573
21172
21176
21174
24179
19391
29169
24079
24311
3337
8093
25099
8100
8081
28376
25082
24371
12365
4912
32963
33825
33824
31012
12372
13420
28372
24124
2637
19092
21524
21520
31843
20408
24119
24105
21171
1134
8086
7891
12625
32135
27824
24101
4527
32046
21793
32043
29170
12370
4842
30679
33419
33410
3003
22666
22403
23328
1068
12242
12252
12249
25097
19136
22678
31011
21521
22675
34613
34612
25098
28185
4357
31023
30675
31019
21177
28444
21693
33248
19390
1245
13244
13250
13249
3569
26236
26348
26310
4351
21552
20405
30694
24121
32385
24520
24372
5024
33387
34431
33412
2450
20399
20395
20393
24408
34428
22676
3221
24504
24074
24501
12627
19396
32047
32655
5257
34052
34061
34566
3172
24207
24125
24211
30975
3336
12244
25077
25093
2664
20480
21662
21665
3941
28801
26238
28797
24495
21519
24100
33420
3344
8088
25137
8094
2370
19749
19754
19751
20614
3189
24073
24348
24347
24209
21663
3250
23119
13421
24597
34607
29397
30970
24173
33827
33832
32246
28182
34867
31013
19399
2310
19227
19232
19228
3825
28035
27823
28030
3335
8080
25090
25076
24598
28371
31570
13248
3174
12364
24231
24228
34817
26347
20407
30972
24212
4896
31072
33738
31078
24503
24349
20400
3164
24143
24138
24142
24104
12369
24369
12248
2376
19804
19805
19807
12626
24232
12251
24350
28027
32249
4976
33386
34162
34054
25094
25096
21523
3033
23081
22667
23427
21175
21692
5023
34423
34055
34422
3179
24268
24117
24267
20397
24230
12624
33418
25089
24343
24262
26346
19128
19755
31839
24144
34573
3201
24304
24411
24414
5133
34050
34761
34570
1089
12379
12368
12377
3940
28796
28790
28791
28802
5259
22680
30190
31571
19753
32386
24214
21525
2912
22857
22662
22854
3188
24118
24340
24335
2547
19389
21031
21029
2290
19040
19043
19037
31018
25091
24336
4560
22671
31564
28443
3192
24099
24363
24366
4744
31076
33095
33094
24137
12378
19230
19226
3247
24590
24502
24589
2955
23114
22674
23111
32649
31842
19225
28795
24271
34764
34429
21028
21664
5030
28184
34451
34044
1276
13414
13415
13412
4922
33876
33809
33874
4877
31567
33635
33639
24269
24206
24413
12250
33637
3177
24172
24253
24246
32044
2903
22783
22673
22787
13251
34426
4890
31838
33709
33707
4795
29168
32137
33193
28033
33873
25088
25092
24145
1133
12623
12619
12622
5408
30191
31040
31573
22789
33828
19808
24226
24252
28794
19395
33091
33710
4971
34042
34134
34133
5114
29172
26349
32141
23113
22858
24345
24588
19036
12375
4629
19397
32583
28179
24139
33813
32209
32244
24338
33826
12620
34161
23116
24346
3246
24587
24177
24344
31016
19042
19039
33192
23429
3332
25073
25069
25071
34160
3240
24103
24569
24406
34868
13413
33706
3241
24122
24570
24337
33872
34131
4730
22859
23329
31565
2483
20617
20618
20620
3328
25043
25041
25046
24250
33093
5250
33393
32651
34865
24249
1090
12383
12374
12382
2717
19134
21899
20403
22788
28032
32650
21032
24265
3191
24098
24361
24360
2766
22081
19393
21173
4802
33217
31836
33215
24356
33194
24213
25068
24339
24341
28803
28024
28804
34132
19803
25074
2392
19129
19748
19936
30974
33038
2460
19750
20461
20464
5127
33391
30973
34611
34449
1246
13254
13247
13255
24367
34430
4148
29848
29852
29851
4233
21666
23428
28441
25075
12621
3213
24473
24227
24469
24264
24571
3238
24229
12376
24563
22782
22855
33216
5214
32248
34843
34572
33708
2340
19497
19499
19500
4715
28793
32976
32973
2362
19224
19683
19688
33039
33636
3209
24342
24449
24447
3970
24251
28972
28970
21030
22082
2703
19229
21845
20396
33871
24412
21841
33830
4745
31017
33099
33096
3904
28584
28580
28581
12384
12381
19806
25048
21901
32206
3889
28368
28479
28474
32582
1069
5177
12247
12260
12253
12259
26350
28805
4925
28447
33883
32384
21897
4480
21522
28177
31774
32972
19756
24358
28579
3871
28359
28354
28357
33640
33098
32207
31022
32975
34164
12258
25095
20466
24472
3190
24225
24355
24351
28585
29849
28473
24362
28978
28031
32974
19935
25040
34163
5283
19044
20398
32652
3218
24494
23112
24492
3326
25031
25025
25026
34753
19231
1275
13411
13408
13409
28583
24490
13257
3216
24208
24141
24484
24483
34762
33195
24247
28358
24444
30178
28355
3205
24140
24410
24431
3974
28998
29002
29001
24445
19686
4070
29515
29519
29518
32208
33036
31772
32581
19501
3243
24210
24578
24577
24468
24565
28034
20467
28977
24585
24446
25028
20619
4936
31021
33941
33943
29850
21844
21843
24365
2383
19866
19859
19864
2346
19035
19555
19549
24491
24564
3212
24334
24467
24464
24354
25072
3170
24189
24193
24192
19552
24270
3048
23470
22856
23327
28476
13253
19494
1091
12255
12391
12388
24480
24463
31776
12389
24353
33218
33097
4094
29619
29621
29620
33940
33942
22784
25023
19690
12390
12380
28999
22785
28974
24462
3245
24266
24568
24582
2581
19752
21221
19934
1132
12615
12618
12616
33191
24430
13410
19495
5183
32247
34819
34818
24586
28968
24428
3334
25087
12257
25083
2461
19802
20468
20472
24471
5129
29003
32388
34609
2514
19038
20394
20823
19863
33884
25085
4924
21900
32383
33882
4567
28792
32250
32251
2952
23098
22781
23091
24448
24576
2900
22765
22759
22761
19685
4889
33701
33704
33703
24359
33829
3237
24558
24263
24562
24482
24190
30971
3978
29021
28439
29020
4950
28029
32647
34020
4554
32183
32181
32182
5235
33831
34763
34842
32180
21223
20470
34450
4509
31952
28800
31950
20465
19558
3049
13256
23426
23473
25024
33702
34023
24191
29000
2583
21231
21233
21232
4517
31990
31992
31991
31989
12387
5196
23115
24493
34833
31993
32210
33638
3239
24567
24357
24364
24561
3979
29025
29032
29031
33875
28478
34022
22764
24481
24584
34019
24566
5392
28360
33711
31844
20820
4546
32145
28178
32142
29516
4477
31761
31758
31759
28576
28353
19937
4176
28789
29965
29963
31757
31954
4597
32418
32416
32417
24465
29023
23094
31988
4907
31020
33092
33803
1247
13252
13262
13259
24461
5324
28807
12392
34812
1092
12256
12397
12385
29517
29622
1274
13402
13405
13406
2862
22425
22420
22424
4516
31771
31985
31982
23096
19865
24352
1070
12254
12264
12267
19550
3235
24248
24551
24552
34732
4698
32901
21842
32645
28356
12617
31773
20460
29853
4470
31722
28578
31718
22762
28995
4558
32200
30969
32199
28975
25045
19502
4513
31973
31971
31972
12261
25027
1334
13757
13752
13754
32419
19860
24429
29616
21222
5219
28806
33196
34731
32415
4631
28026
32593
32578
28472
4440
25030
31535
28799
32900
31720
22423
13261
24194
24466
4073
29535
29530
29534
32899
4692
32871
32579
32870
31974
5287
32653
34165
34427
31717
4717
32984
32980
32983
29029
32981
4445
19689
21898
30968
4707
32934
32932
32933
4089
29600
29601
29599
2842
19553
19041
22326
4188
25086
28798
30010
24489
20821
29033
29028
4444
22786
28973
31553
30012
24560
29964
22419
29596
24559
33802
13407
31953
28582
19557
29533
3880
28415
28412
28413
29961
32179
31562
23469
31534
29962
32414
24553
1326
13702
13698
13701
4984
20621
31775
32045
34850
24470
12398
13753
24443
4443
31550
31551
31552
32982
25029
3968
28953
28956
28955
4693
32872
32879
32875
4557
32197
28996
32194
1629
15425
15423
15420
1328
12386
13713
13712
22763
31760
32196
28997
32178
31557
34024
33705
31756
31955
4919
21235
28028
32580
4588
24583
31015
32381
32592
32874
32876
1336
13770
13769
13771
13697
29597
34882
29598
31561
2526
20898
19684
20903
28408
15422
15426
20473
15421
2523
19496
20883
20616
32382
3351
12265
25084
25156
29531
13404
4512
31967
31014
31966
1335
13763
13761
13760
31716
32195
5172
12266
34804
12396
32589
4191
25047
30018
28469
21220
13768
15424
28471
20471
28411
29618
32902
2836
20463
13260
22305
32591
20822
34805
32143
13755
23472
1337
13777
13775
13776
31970
30011
1552
14981
14984
14983
25155
1608
15300
15302
15301
13715
28957
31723
4101
29657
29659
29658
31984
1509
14726
14724
14725
14727
1563
15036
15038
15037
4160
28969
29514
29900
300
7586
7583
7585
212
6967
6964
6966
2542
19933
20999
20995
25154
30009
31987
246
7165
7166
7168
5232
32211
22426
33037
245
7162
7161
7163
29026
23095
4593
32404
32402
32403
31719
1131
12611
12610
12612
3343
25042
25135
25070
31549
2843
19687
21896
22327
28410
13699
31949
21219
19867
213
6974
6972
6973
1531
14858
14860
14859
332
7775
7778
7776
31537
13700
1570
15062
15060
15061
333
7781
7782
7780
1518
14783
14787
14786
22303
22304
30008
214
6985
6980
6984
299
7578
7575
7576
28407
23093
28951
28958
13749
4630
21234
19556
28025
13772
31951
6982
14982
29532
13756
4591
32205
32394
32393
1571
15068
15065
15067
1341
13799
13798
13797
24554
1494
14622
14620
14621
31986
1327
13705
13707
13703
13695
13802
6965
12393
31969
32587
23471
31559
244
7155
7157
7156
7167
29595
29656
1442
12263
14325
12395
22325
326
7740
7738
7739
6958
20994
1343
13809
13810
13811
1441
12262
14323
14321
1508
14718
14716
14717
1553
14980
14987
14986
1338
13783
13781
13782
15058
14322
31965
1332
13741
13740
13744
7777
1340
13403
13792
13793
32144
3324
25007
25006
25011
1493
14617
14615
14616
31555
6963
1611
15322
15325
15324
14722
28477
15035
7581
13714
7570
1339
13787
13788
13786
13765
20901
31538
7158
15066
15297
1331
13736
13733
13735
15064
13758
32869
14855
28405
1638
15477
15479
15478
1330
13730
13728
13727
32584
7151
2995
22760
23290
23289
29030
32586
7772
29022
3731
19554
27288
27287
14782
7573
1605
15284
15282
15283
28409
20884
32590
2687
20462
21767
21218
6981
6962
22324
1534
14880
14882
14881
1645
15419
15497
15496
14784
14619
14613
4921
33865
33862
33864
5253
28976
23097
34832
22421
1585
15165
15167
15166
14723
7584
13773
1329
13724
12394
13722
1551
14977
14979
14978
28954
30019
1466
6969
14464
14462
301
7595
7590
7594
6983
3893
28508
28505
28506
7592
7734
13800
28509
14715
6960
14460
15321
14618
3325
25013
25016
25020
7577
2629
19498
21484
21483
13743
7164
7154
14461
28952
1273
13399
13400
13396
4246
28971
29898
30220
19861
13764
15059
1586
15171
15174
15173
13706
13708
7735
20900
1628
15414
15417
15416
12614
13731
7736
15418
13721
25136
13812
20469
1059
12209
12205
12206
1528
7574
7582
14841
13803
14839
14840
15164
13790
20879
12208
331
7766
7771
7770
30218
15323
13716
13762
6968
25009
14713
14719
14614
1595
15230
15063
15228
1454
14391
14394
14393
7773
15299
6978
27286
239
7127
7128
7123
15056
7153
7160
13723
23287
7159
2517
20842
20837
20841
4609
21840
32479
32476
1248
13264
13258
13266
7768
15227
6961
14974
13710
21766
13398
13780
14856
14392
6971
15296
14877
28507
4196
28577
29617
30039
7124
14785
29899
5078
32877
34021
34424
20835
5179
33805
31721
34425
1627
15413
15411
15412
5174
33885
21224
29024
13779
3331
25063
25065
25067
1444
14331
14330
14332
1455
14397
14400
14399
14857
14985
3348
12613
25148
25044
20902
4965
32898
34104
34101
15168
13734
2344
19539
19536
19534
6970
31556
14854
14878
15298
15281
20838
1612
15330
15328
15329
33869
13725
30040
14611
14780
7779
7774
25132
15162
4164
29529
29914
29913
33801
15225
211
6957
6955
6956
7572
7580
2672
21700
19862
21230
15229
34626
13784
7579
7593
12207
14324
27289
15163
20998
15415
32198
25012
298
7569
7567
7568
15327
32878
5404
28417
33945
34166
6951
23292
13401
29915
14398
13778
13717
30217
1535
14886
14884
14885
7563
23291
1527
14837
14712
14838
13742
7737
15320
15172
1342
13806
13807
13804
13795
32396
1575
15094
15091
15093
1497
14636
14639
14638
1529
14844
14846
14845
7565
5066
28414
31762
33944
14721
32401
1333
13747
13748
13745
13737
15410
15409
14835
25021
7769
7125
1604
15280
15278
15279
6976
328
7750
7754
7753
2894
22706
22709
22711
13801
13794
14720
7591
14463
21699
33804
34625
25015
7752
14836
14637
1146
12204
12706
12705
7733
6953
1594
15221
15223
15222
27284
14714
1574
13696
15086
15085
1606
15289
15287
15288
28510
2459
20455
20459
20452
7126
3021
23397
22302
23395
14842
4716
28475
31983
32979
4553
29027
32176
31558
7589
14329
250
7190
7152
7192
210
6947
6950
6949
21768
7566
15087
1564
15041
15039
15040
15084
15057
30219
15170
22418
22713
32395
302
7587
7603
7601
337
7802
7767
7804
15219
7189
14976
14612
1467
14466
14468
14467
2492
19548
20681
20675
15277
15226
13729
15285
7801
6977
32174
15169
6979
5314
31956
29660
34849
1465
6952
14455
14453
29916
7191
21480
241
7122
7139
7136
3752
27443
13720
27440
6959
7588
32406
33867
13265
25005
7602
21481
7138
23286
1443
12704
14328
14326
7803
34105
14833
13719
6954
15161
6941
3774
27634
27631
27633
13789
2720
21914
19551
21913
14390
15089
14458
1562
14975
14879
15033
178
6680
6672
6676
13726
27441
7597
21000
31560
33870
20881
15083
27632
13709
1130
12606
12604
12609
1453
14387
7564
14383
7571
14382
14385
31539
14781
6945
20996
32978
15092
14454
6682
14327
4262
28470
30268
30265
1286
13397
13461
13459
19537
1517
14775
14635
14778
15042
1498
14646
14640
14644
15220
215
6993
6975
6992
6675
4625
32561
32556
32557
20682
13785
7137
4245
30216
30212
30215
31968
20839
13808
30042
14776
19535
14396
14389
1610
15318
15315
15316
3982
29047
29042
29044
20676
25066
249
7183
7187
7184
20456
14834
12608
28504
15032
329
7756
7760
7757
14777
2708
20899
21861
21863
1811
16431
13759
13766
1814
16442
13704
13711
13718
1812
13767
13774
16434
14779
297
7561
7558
7559
1554
14991
14988
14990
6948
13457
15276
32555
6681
15224
25019
21916
7557
1809
13791
13796
16419
28406
29048
30266
5195
32588
32594
33854
2689
21765
21775
21779
2996
23092
23298
23297
32175
6987
14642
30213
16430
19533
7185
1810
13746
13750
16425
13738
7553
15034
4000
29163
14459
29162
7555
7751
6943
32478
1630
15286
15428
15427
14645
7749
34106
2407
20056
20061
20057
20836
14469
7600
14843
1813
13739
16438
16436
336
7800
7796
7795
6990
1147
12710
12708
12712
16424
3756
25134
27472
27470
14386
32400
15312
16433
13732
3340
25117
25008
25112
3330
25062
25059
25058
20054
13751
27444
29050
15326
242
7144
7142
7141
4170
28950
29940
29937
20677
15429
7188
7761
265
7299
7296
7297
21777
2401
20004
20010
20005
16440
14457
21781
33863
264
7292
7287
7288
13805
16418
16443
3742
21698
27378
27377
14883
7797
22707
15218
27283
32563
7284
7182
7794
20009
12709
193
6800
6801
6806
14456
7560
280
7413
7418
7412
13460
13458
15090
7291
25120
6991
7285
29938
7186
15319
3008
22422
23350
23285
1249
13263
13271
13269
14643
7758
27477
12605
4906
33796
32873
33794
4238
30195
14384
30194
20454
1584
6944
15157
15160
16427
12713
5211
21485
21701
32146
7135
7143
22708
16421
6679
27374
243
7145
7150
7146
27630
6804
29046
29917
3882
23288
28425
28423
23296
1532
14866
14868
14867
3346
25010
25142
25018
28427
14989
7799
33799
15314
20683
12607
1507
14710
7556
14709
4096
29639
29630
29634
1510
7599
14731
14729
23396
6946
1587
15176
6989
15178
32562
7798
14706
15158
16437
16428
29633
14708
16422
14862
29636
7759
6807
21864
1468
6988
14465
14471
5262
32397
23293
34861
27475
1609
15088
15307
15306
16420
303
7596
7610
7608
5304
28416
34887
32405
29635
7417
15310
14730
25119
15159
32560
15177
12711
6683
20678
4677
32803
27285
32799
16432
7298
7290
4775
22712
31554
33166
4069
20997
29513
29511
14711
14473
5422
14388
32177
31563
1533
14876
14774
14874
3981
7289
27628
29040
14641
1550
14972
14968
14969
177
6669
6670
6666
6667
16417
7415
15304
25116
4479
20882
21482
29912
7140
1898
16893
16896
16892
15180
27379
6803
31769
14872
14873
29164
7609
13268
21778
27474
29941
1456
14404
7598
14395
20058
4159
20840
27629
29896
14875
25061
248
7177
7176
7181
4817
27442
25022
31536
14470
7149
29939
14970
3345
25017
25138
25064
7562
7605
29049
33798
216
6995
6986
6998
20458
315
7664
7666
7665
14732
179
6692
6688
6690
1908
16933
16937
16936
6997
23351
7180
32800
266
7308
7304
7307
16934
296
7551
7545
7550
1148
12707
12716
12718
29510
33246
21862
14707
335
7793
7789
7791
25113
7306
28424
14403
7148
25143
6671
7548
7792
14865
330
7755
7763
7765
15179
1464
14448
14452
14450
228
7050
7049
7048
19538
16894
16935
31770
7604
2666
21677
20007
20880
28428
15317
192
6793
6797
6790
6942
3886
22710
23295
28454
1886
7414
16827
16826
28453
20008
7179
7764
14973
3837
21915
27282
28111
32475
16895
23349
21675
21479
20059
279
7403
7406
7409
2442
20342
19532
20336
14870
3859
28268
28271
28269
29895
23348
33793
1129
12600
12603
12598
12715
29039
209
6935
6940
6939
16823
20338
28274
28273
1495
14623
14624
14627
28272
7552
3869
28343
28345
28344
14864
28346
29897
30267
12599
12717
14628
14626
7293
1285
13456
13455
13453
7611
28110
6938
7549
5169
29638
30041
34802
7790
4162
29908
20680
29906
6999
28455
217
6668
6673
7004
6798
1572
15069
15071
15076
20679
1452
7554
14377
14381
6687
4767
32559
33152
32585
6794
1573
7147
15077
15081
14401
20457
15078
14869
15309
7407
304
7286
7616
7410
7663
4511
29632
31964
31961
7617
7294
1496
7762
14629
14634
3327
25034
25014
25037
229
7054
7055
7056
14630
16435
6994
6936
4484
16423
31796
29041
7607
16429
7546
1596
15175
15236
15233
7178
4152
16441
27439
29867
1910
6677
16947
16946
16824
3000
23284
23315
23312
1885
16815
7662
16816
25039
4192
6691
30022
29911
7305
16439
25121
16817
1914
16972
6678
16969
31799
5293
32564
27290
34883
16820
4237
30193
6805
27376
29631
28342
15080
30020
1350
13854
13858
13853
12602
3349
25060
25149
25133
1907
6802
16929
16928
31960
13270
21776
1897
16888
16890
16889
1519
14728
14792
14790
15231
28341
27375
7047
15082
238
7121
7118
7120
4552
29043
32173
32172
6795
15073
7046
6689
2896
22723
22730
22725
327
7748
7741
7746
32171
4592
20060
21780
32398
29907
25035
316
7672
7670
7671
4169
7408
7416
29934
1583
15151
15149
15155
4816
27476
33245
32977
28426
30214
21673
1344
13816
13817
13819
14379
14374
7003
325
7732
7730
7731
22728
14788
7052
5147
33868
29637
34624
14451
14472
16886
25114
25140
28112
7002
16971
3964
27438
28935
28936
32804
7606
28108
16931
15235
28267
314
7295
7302
7659
28114
29512
6937
208
6924
6933
6932
6796
31963
7728
7661
13454
16818
16811
1506
7547
14699
14705
7614
16825
1348
13843
13840
13839
7119
20341
14375
5044
33866
34517
34102
16924
15075
14632
7613
33797
16945
14402
14702
14971
15308
7660
7668
6929
7045
16930
15156
15313
7743
14449
7615
13856
281
7428
7420
7427
16812
28934
15074
29905
31962
13814
15234
30192
33800
2947
23072
22705
23068
6996
23069
23075
22724
7744
21676
31768
3883
23347
28429
28431
7057
16925
194
6809
6814
6811
14405
1561
14871
15029
14967
218
7008
6791
6799
14793
227
6674
7043
7001
305
7404
7411
7621
14703
6926
1325
13690
12714
13692
33795
7114
2704
21846
20453
21847
13845
4483
31790
31795
31791
7115
7303
16970
334
7788
7783
7786
7612
7619
16819
14625
7425
7000
7006
7422
32801
6686
7044
1250
13267
13275
13274
13852
25139
25038
30021
28115
7424
247
7172
7174
7169
6816
28430
240
7134
7132
7129
7656
29935
1346
13827
13826
13830
29509
28266
2412
19531
20090
20095
2303
19164
19156
19158
2413
20097
20103
20100
4608
28270
32472
32469
7658
1349
13846
13848
13851
14704
7116
20096
1347
13835
13832
13833
13837
6927
3350
25115
25153
25141
4894
29045
33730
32170
1905
16814
16887
16922
15030
13820
16426
31798
191
6789
6783
6786
1922
16927
16932
17005
13694
16921
31800
7657
7053
7426
23316
278
7396
7399
7400
22729
32470
25036
6934
295
7541
7536
7538
31787
1284
13448
13451
13450
14791
16920
7785
6813
4003
29182
25118
29180
15153
27471
17007
13838
7175
3980
29037
20339
29036
28422
14378
7131
1457
14413
14407
14411
21848
7539
317
7676
7680
7678
13815
1143
12695
12692
12693
17006
6788
1631
15079
15305
15434
15154
28340
267
7312
7300
7311
7667
1906
16822
16891
16923
2557
20055
21081
21086
3028
13855
23415
23294
14376
15432
1128
12594
12593
12597
1555
14631
14863
14993
180
6684
6695
6696
7729
6810
1324
7171
13687
13689
13685
4156
29629
29884
29881
23071
34518
324
7721
7727
7724
3338
12601
25101
25057
230
7051
7062
7063
13825
6930
1536
14861
14892
14890
1626
15311
15072
15408
14789
7401
20104
1445
7421
14334
14336
7543
13452
14409
14338
15031
1613
15232
15335
15303
19161
237
7113
7107
7111
13844
25100
2541
20006
20986
20988
219
6792
7005
7013
306
7405
7618
7625
1900
7669
16813
16904
1345
13821
13822
13824
13831
13813
20099
1902
16821
16910
16911
15152
34515
313
7301
7655
7652
21085
13847
25150
16901
7620
1921
7007
16926
17004
29883
226
6685
7040
7039
16908
1917
7117
16968
16984
6785
1549
14966
14701
14963
13273
21082
6784
7397
3009
23346
23070
23355
23353
25152
16902
3954
28881
21674
28880
1576
15100
15095
15099
3342
25033
25130
25128
31792
7310
16912
19157
16983
7544
7042
6697
13691
25131
17001
4761
6815
32558
33141
7787
7061
12694
6694
14964
14888
13836
29880
31788
15332
7723
7398
22726
4154
13857
14633
28452
7313
7725
7133
17003
6812
28879
3772
27615
27612
27614
7654
7109
7112
4153
20340
29035
29871
3041
23313
22727
23453
7679
16903
14337
7542
15431
7674
1499
14647
14653
14651
13850
1603
15275
15150
15272
6787
29181
14995
27611
20993
33144
4803
14380
32477
29038
20094
7060
7011
12595
7624
3822
27992
27999
27997
7747
3823
28005
28009
28008
16982
21849
1607
7173
15295
15070
29872
23454
32471
4067
23073
28451
29501
29870
5306
7402
29936
32399
23416
1526
14832
7540
14700
15274
14649
12596
1891
16859
16858
16861
15293
28004
28113
7745
23074
3875
28384
23314
28381
3339
25110
25032
25105
14412
5075
32802
32473
34103
16913
7423
15097
17002
25107
28003
1888
16839
16838
16836
14891
4893
31797
33725
33720
7722
181
6693
6703
6708
6699
13686
34514
14829
14408
3283
13829
13834
24793
7653
7626
1915
16967
16976
16973
15290
3793
27769
16909
27767
1920
16999
16997
16996
15098
4260
25151
27473
29179
7012
268
7309
7318
7322
20102
3329
25051
25054
25052
6706
6928
7041
1288
13449
13468
13469
15270
350
7886
7784
7884
14650
14335
1144
12698
12697
12701
16840
20991
7059
30259
195
6819
6808
6823
7321
12691
15028
251
7130
7196
7194
27998
25053
25109
14831
21083
28382
1251
13277
13272
13278
7316
25102
14965
4632
29882
31959
32598
33723
4044
13688
13693
29381
24792
13842
23354
7888
29500
14994
6701
2639
7677
21532
20337
15271
6822
23452
16975
25103
277
7390
7394
7387
1451
7537
14371
14369
15433
15336
16860
338
7742
7812
7808
31793
7395
7110
282
7419
7430
7434
16998
29873
13470
23352
28007
5335
21850
32805
34884
263
7170
7280
7282
19165
20992
33142
27993
14652
6931
7431
27771
7726
7198
7319
20987
7810
21084
19163
14830
15334
3347
25129
25145
25147
3276
24753
13828
24751
13823
13818
3892
28497
28501
28499
21534
6704
2513
20818
20813
20815
7388
5361
7064
20106
29909
15294
20098
31789
34615
7324
6821
207
6917
6921
6920
12700
20091
1903
7675
16900
16915
5331
31801
29885
34783
190
6776
6781
6777
6779
27996
27616
15292
17000
7283
7281
16837
3274
13841
13849
24737
24749
1463
6702
6925
14445
1895
7623
16878
16881
294
7529
7534
7533
1625
15269
15403
15405
6818
6705
7807
7532
29874
25055
12699
16974
14443
29877
14372
1911
7108
16949
16952
6922
1290
13482
13486
13483
1516
7885
14773
14768
34617
32597
7392
14770
1637
15291
15474
15407
16948
7433
4165
27613
20105
28109
25050
16914
14410
14767
16879
5371
23356
14654
28432
7887
27765
7530
24794
25049
24750
1565
14889
15044
14992
16857
1639
15430
15333
15482
1912
7010
16956
16957
7317
20990
15045
24734
15481
7278
7435
33729
29923
29921
23455
1588
7195
15181
15186
25104
1511
7809
14733
14737
32599
1295
13276
13521
13520
4243
7393
30209
30207
7197
27768
32596
16955
15404
1548
14828
14959
14960
1582
6919
15142
15146
1289
13474
13467
13476
2832
22294
19162
20093
236
7100
7103
7106
15183
20819
307
7631
7389
7622
14735
6707
19159
25146
6918
312
7315
7650
7649
225
6700
7035
7033
323
7719
7714
7715
13485
220
7016
6778
7009
7629
7718
21535
231
7072
7058
7069
3966
25108
15273
28933
1597
15096
15239
15237
1520
14648
14796
14794
15406
13523
1291
13491
13492
13493
28500
14962
4006
16841
7323
29034
28387
20816
29503
16916
1505
7531
14693
14697
7101
1127
12592
12591
12589
7068
28943
15472
5317
7535
31794
32474
13522
318
7684
7673
7683
28383
24754
16951
6782
15240
14694
15145
6820
21533
34616
14766
28010
29924
5149
6923
29183
30260
29195
33724
22296
14769
2819
20092
21531
22253
16961
5271
33143
34874
34516
7015
1287
7806
13466
13462
25056
196
6817
6825
6832
13471
25111
29876
33220
15148
16880
1537
14887
14896
14895
7432
14798
14373
7105
34614
1614
15331
15341
15339
283
7429
7437
7441
15475
1893
16867
16856
16869
13480
22252
14795
4691
32595
27995
32866
15184
24739
15238
7630
14698
1145
12703
7279
12696
28000
6829
1892
7320
16835
7651
13477
1293
13507
13508
13511
2803
22203
7070
20101
5387
6709
16977
7038
15144
13496
28945
28502
3767
25106
27565
25144
262
7276
7271
7275
7716
3898
15480
28542
28539
7067
16865
189
6769
6768
6773
34875
3828
7811
14736
28053
14446
4157
14961
28002
29887
16864
27566
1446
7391
14340
14333
33728
15476
7686
7034
16953
22202
13463
1202
13036
13035
13039
2696
19160
21808
21811
6828
15473
32864
12702
4595
27770
21087
28385
15185
16959
15043
29889
28546
1142
12688
12690
12687
5270
29875
21536
33219
6774
269
7314
7329
7334
7444
13509
20812
15241
14695
13465
1141
12680
12679
12682
33727
7440
20814
1458
6780
14415
14406
1292
13503
13500
13497
13488
16871
12590
14417
2550
21047
7717
21046
6772
32867
24732
13478
5396
6710
14447
30261
1547
14955
14765
14956
13484
29892
7331
349
7881
7878
7879
6826
4680
32820
29920
32822
4150
14797
29865
29499
7273
20817
32823
24736
1294
13515
13512
13516
13504
22254
206
6908
6910
6915
293
7521
7523
7528
1593
15215
15210
15212
28503
6911
7524
252
7202
7193
7200
29196
7438
7330
7327
276
7383
7382
7386
15340
32821
182
6698
6716
6713
13524
32868
1894
16876
7682
16873
15342
14897
13494
7274
6831
1624
15401
15143
15397
4485
31809
29868
31806
1140
12670
12674
12672
2818
7685
22249
21530
4555
29869
32185
32189
339
7805
7816
7818
14342
32187
30208
2631
20985
7104
21492
1139
12662
12663
12666
13475
1889
7628
16843
16847
14958
22295
16862
15398
3977
7071
29019
16958
27567
1924
17013
7102
16950
3820
27977
20989
27974
4559
14772
24752
28006
4665
6830
32754
27994
22201
34901
6717
6715
2495
20703
20699
20701
4261
14444
30262
30258
14370
21050
32204
32201
7442
13040
3955
16870
7720
27766
28543
32758
7814
7037
17015
12676
16842
29017
5278
13510
34879
28386
7443
12664
32188
1136
12639
12634
12641
7333
22250
22247
28883
7385
13501
1556
14734
14996
14999
1632
15182
15435
15437
1525
14692
14824
14826
4787
13487
14898
29502
14894
13479
6771
12667
29888
13495
7204
1137
12646
12647
12648
4098
15147
28944
29646
15214
29863
13517
4923
33881
33721
33878
30264
16874
15400
1126
12582
12583
12585
31808
1135
7272
12629
12631
20705
7527
12640
15338
1138
12654
12655
12656
3972
14957
14771
28001
13502
7883
6914
1602
15141
15265
15266
221
7018
6770
7014
21809
5419
29197
7335
33221
12689
21810
32753
21048
13038
31802
308
7384
7627
7636
311
7326
7646
7645
224
7030
6712
7032
28885
6913
12659
29864
20704
1577
15108
15101
15103
17012
34873
7634
1500
14660
14655
14657
12673
232
7078
7065
7077
12649
7817
14344
7201
6827
4231
16866
7332
29194
4482
7526
14696
31786
2039
13514
13505
17644
21491
28988
7439
33880
14823
16877
14416
29919
27982
29886
12628
1909
7066
16943
16938
14345
2438
20309
20303
20306
3282
24733
24791
24748
319
7681
7689
7692
15267
32752
1919
7036
16995
16992
28985
1644
15493
15399
15471
322
7707
7708
7713
16845
12636
29890
7031
12644
12651
32190
5395
15217
7277
29382
32186
4911
33823
32865
33719
4239
6775
16960
29918
12665
15213
17646
6912
17647
31807
32412
1530
7880
14853
14764
15001
12633
12632
7648
12650
2038
13498
13490
17638
4071
17014
29525
28498
235
7093
7097
7095
3287
7203
24808
24735
29018
1363
13464
13908
13472
12683
7074
20697
7815
20308
1615
15346
15337
15348
7525
14827
5234
24738
28545
34862
31804
29526
1462
6714
14436
14442
22251
30174
29644
14662
12588
2037
13481
13473
17631
14661
1450
7328
14364
14367
12586
24789
33822
1420
13037
13518
14223
12643
32203
33726
20310
1896
16872
16863
16884
7020
7522
28544
275
7376
7375
7380
7710
6909
14439
183
6719
6711
6724
6725
27978
7377
12681
31782
15104
15344
15107
188
6763
6765
6761
31805
14848
14851
2042
13499
17660
13506
17640
3750
16875
27421
22248
1904
16844
16868
16918
2419
20154
20157
20153
12657
12671
3279
7882
24747
24775
7075
7647
340
7826
7813
7824
17633
13489
17639
21493
4072
29527
7635
16846
14998
16944
7709
27423
28882
20150
1538
14893
14905
14900
33821
24790
6766
6721
284
7436
7446
7451
2032
13519
13513
17606
31784
14825
14658
2352
19601
19608
19604
7447
270
7325
7340
7337
14222
7822
16993
13907
261
7262
7266
7270
27426
7693
24810
4809
15402
15495
27569
197
6824
6834
6838
27975
4242
7205
15438
28540
1916
7019
16954
16980
12658
33818
4193
15494
15216
27568
6835
12642
7341
205
6903
6900
6905
32755
7263
7379
16940
6722
17634
20158
6762
15349
4980
29891
32202
33722
15268
7098
17641
14368
14850
17629
292
7513
7519
7516
6720
4244
14343
30206
30210
3788
14659
27733
27729
24809
16919
16883
28884
24771
7520
15109
28987
2800
20698
22193
21807
27732
5354
6916
29647
30263
19600
5249
14418
29922
32757
348
7873
7874
7876
1887
7633
16828
16834
14221
7514
1918
7094
16987
16988
33877
7338
1890
7688
16848
16853
2068
12645
12652
17797
12638
30026
253
7211
7199
7208
17637
1546
14822
14947
14950
17602
1623
15264
15393
15396
6767
15395
24787
1512
14742
7823
14738
7381
16831
16985
29645
19607
3969
20307
28960
28959
16849
6907
28962
3881
7712
28418
16917
14847
14441
4167
29931
14341
29930
30024
2719
7076
21910
16941
12675
28963
28964
2070
12661
12668
17811
4008
15000
17632
28052
7268
4524
15439
15347
28541
271
7349
7344
7347
7210
29528
7449
2078
17855
12669
12678
27981
34897
1636
15211
15467
15465
1351
12630
12635
13862
30197
17798
14903
29212
1521
14656
14804
14799
7339
2069
12653
12660
17804
34181
1581
6902
15133
15137
21049
7336
2855
12587
21490
22359
6901
2805
7691
22210
22209
20305
17604
24772
1419
12584
14219
12684
19605
17800
7450
3975
29007
29010
29009
321
7705
7700
7702
14743
2071
12677
12686
17817
17645
14952
184
6728
6718
6731
20702
29006
20152
22213
17818
21911
1504
7515
14687
14691
223
6727
7026
7025
7264
6839
28420
310
7343
7642
7641
7267
30205
17658
15140
28990
234
5369
7089
7087
7092
16990
7099
14689
187
6757
6753
6759
30202
2031
13906
7825
17598
33819
17813
233
7073
7084
7080
222
6754
7017
7022
20156
14802
6752
2556
21078
7711
21045
29524
274
309
7367
7371
7368
7632
7638
3768
27576
27583
27577
14365
32033
15135
17856
17595
7348
1566
14901
15046
14997
7374
7366
1901
16832
16906
16830
16905
22360
27573
31785
4240
1923
16989
17009
16986
16994
16991
2585
7096
21246
21242
28966
7701
29521
15394
15469
5329
6723
14440
34892
4523
6837
32026
15105
30203
29523
7448
17807
17659
7027
7028
27980
17801
1640
15345
15484
15436
1589
7207
15187
15190
17815
6733
15106
4763
7024
17010
7023
16981
16978
29929
14218
34891
3838
16942
28120
16979
17605
27730
2820
20700
22256
22192
1913
7088
16963
16966
14741
7021
7029
1598
15102
15245
15242
16964
17011
32028
2050
17630
17710
17635
27579
16939
16965
16962
4241
1899
16885
16855
16850
16882
16899
7086
7081
7079
2061
12637
17761
17764
7644
7643
21077
14740
15189
15483
4161
14852
7877
24774
7085
5231
32756
34860
33820
17599
198
6833
6841
6848
5390
7269
34902
30025
6734
1421
14220
14225
14226
27424
3967
7639
16829
7640
16898
16833
320
7696
16851
7695
7699
16907
16854
14951
28986
2066
17788
12685
14217
14902
14801
6836
15244
16897
17808
4481
31781
14366
31778
28421
2478
7687
7690
7697
16852
7706
7694
17707
285
7445
7453
7461
17785
4194
6906
15138
29643
30028
15136
7518
31777
17708
30199
7346
13860
30198
21909
1459
6764
14424
14414
17008
272
7356
7353
7352
7637
7090
21249
33879
2046
17685
17603
17642
17795
13861
20586
14954
2086
17904
17899
17901
28419
2051
17656
17636
17715
21244
1447
14339
7378
14351
3278
7209
24766
24763
7350
7703
3275
24742
24746
24744
28946
186
6747
6749
6751
17683
32031
1560
14849
15025
14948
7373
4556
31803
32184
32192
347
7869
7872
7867
15470
17812
21079
7458
7456
1622
15391
15134
15386
17758
22255
19606
1539
14899
14910
14909
17816
28122
6735
6730
185
6737
6745
6738
21907
1362
7821
13905
13904
6746
22211
31783
6758
15387
24769
14422
6755
32025
28124
27425
3281
24770
24782
24786
27420
17805
1616
15343
15353
15352
254
7218
7206
7213
3797
7517
14690
27794
4005
6904
29193
14438
7369
14349
28948
15243
20155
17787
20585
27570
17854
29005
14949
2587
19602
21263
20304
7357
4092
27976
22361
29520
2052
17643
17657
17719
17684
7358
6842
3836
24788
28107
28103
260
7259
7261
7255
2618
7083
21431
7091
6744
14350
27581
6847
6844
7454
17763
17716
204
6890
6898
6893
24740
28121
2351
19591
19598
19594
17705
7215
6726
4004
24773
29185
28984
20587
4265
15468
30023
30275
1515
14761
14755
14757
6892
6897
21262
17903
4168
14803
14904
14800
14911
29008
6750
17799
1557
14739
15002
15005
1633
15188
15440
15443
29192
1449
7345
14357
14358
273
7364
7361
7360
291
7512
7506
7508
5284
14913
14906
29213
6736
7868
29190
7511
7509
17789
5190
27979
29522
34828
1422
14224
14228
14230
27797
4171
341
7827
7833
7819
14744
7831
7342
17709
4259
15139
30256
17806
17597
32030
14232
20590
14908
19595
1352
7265
13859
13866
15445
17711
15389
1545
14688
14941
14944
17712
2085
17810
17853
17898
17600
3277
24759
7875
24755
30277
7351
27582
2076
17786
17844
17814
7462
27731
27793
28106
15390
4590
28989
14953
29902
15351
31779
1461
6729
14431
14435
32389
2580
7698
7704
21215
27574
32193
17681
21247
7256
21428
3887
28463
28458
28460
21241
29187
29613
6741
2083
17887
17796
17802
6732
17897
1592
7258
15209
15206
1418
14213
14215
14212
4782
28965
33178
30196
1361
7820
13901
13900
14423
6760
14361
14945
14942
15026
17762
30027
28123
14362
28462
27575
29933
17843
21214
1578
6843
15115
15110
4197
30043
30047
30045
4266
7219
15191
30201
6899
21260
21912
14231
7870
24745
29211
3827
28049
28044
28048
4706
32928
32930
32929
28046
24784
28105
2084
17803
17809
17891
19596
15006
21245
29184
1601
15132
15260
15262
17845
2059
7457
17754
17752
6894
21258
17900
4786
15354
15246
32032
7372
7830
13903
17893
1569
14758
15053
15024
1524
14819
7510
14686
1501
14669
14663
14665
7455
17902
15009
15444
1643
15388
15464
15492
17714
14818
7832
17886
14347
22257
30255
17885
24767
21075
2592
20151
21285
21289
24785
30044
7214
14216
7507
28116
2058
17706
17749
17713
32027
13864
17896
6742
7355
32931
24765
2529
7082
20916
20918
4158
22212
27422
29004
15112
15116
3833
15208
28083
15466
5203
14946
15055
14943
15027
3888
14437
28465
28468
21248
17755
27796
6896
29903
14433
24764
17888
28461
27795
15207
15490
21286
15446
4063
29475
29471
29472
17846
29943
20583
17718
17750
19599
1460
6748
14426
6756
4166
6846
29928
29925
14421
17892
3973
7459
14348
28993
6891
7260
28994
28082
14432
20589
14759
2053
17724
17682
17723
2045
17674
17596
17677
2033
17601
17608
17611
7363
17747
17760
5210
30204
15447
32034
20915
21076
32390
342
7828
7839
7840
14360
29893
1621
15379
15384
15381
21429
28102
6739
17717
290
7498
7502
7501
6740
17680
255
7212
7222
7224
24741
14214
3730
6895
27278
27277
17679
29191
1417
14209
14210
14211
3983
7460
29052
17753
14429
259
7247
7251
7253
14419
1617
15356
15350
15360
17883
14229
27279
29894
5291
28949
7359
30200
14821
27798
28100
29053
14667
32191
1544
14817
14935
14940
15113
286
7465
7452
7468
14937
29186
7365
15261
27572
28961
7467
7464
4804
15008
14912
33222
29478
7505
28991
4002
6845
29174
15114
1353
7257
13863
13871
29926
7499
1540
14907
14917
14915
4172
15054
14762
29901
14206
199
6840
6850
6855
5316
15263
15392
30257
27578
24758
203
6883
6887
6886
14670
29932
2074
13865
17759
17835
17834
17722
14666
24768
30278
28104
17721
15259
15385
1448
7370
14353
14346
21213
7362
30276
14363
6851
6854
346
3286
7864
14760
7866
7863
7871
13870
1635
15205
15459
15457
29470
5218
21080
14233
30211
17678
28466
4083
20588
28947
29575
20921
6888
6884
28047
3280
24761
7216
24780
1503
14679
14685
14681
17610
2093
17941
17895
17940
1590
7221
15192
15198
29946
33185
21290
29474
28456
1360
7829
7837
13899
30046
17832
7252
2091
17933
17890
17932
24757
17833
2082
17877
17881
17878
13902
1559
14756
15022
15019
27276
17676
24756
17894
7354
14356
13896
2683
19592
21751
19603
29173
1580
6885
15125
15128
7248
21257
3901
28561
21908
28558
1567
15003
14916
15049
28051
28050
17882
4235
7841
15007
29942
4173
7504
14820
27792
15127
15131
29175
29473
3947
14427
6743
28117
1522
14664
14810
14805
5247
14763
24760
29904
14208
287
7463
7471
7477
17939
3285
7217
7223
24801
20584
14939
13869
3777
1641
15358
15442
15357
15485
15441
21261
28457
17931
29054
17612
29951
14352
27281
4180
15383
15491
29981
14936
17842
7500
14683
29945
27655
2030
15004
17594
17591
29576
1513
7838
14745
14749
3284
24743
24762
24795
1599
15359
15111
15249
15247
7865
15020
6852
4076
7469
14668
7466
14809
3963
7503
28930
14359
5115
27580
34733
32029
29950
2089
17884
17889
17920
2792
22160
22165
22163
29947
2056
17738
17742
17741
15196
27654
29051
28929
28927
2854
21243
21427
22357
14434
14425
3976
14420
14428
29014
17720
15194
28101
28118
15380
15461
200
6853
6849
6858
6862
28081
17929
14747
15048
28931
7472
7475
2065
17780
17784
17783
5416
27799
32392
34182
1416
14205
14201
14204
202
6879
6871
6873
29013
21284
17740
17880
21216
1541
14920
14914
14923
4163
21430
28119
28459
2080
17868
17863
17869
14806
289
7494
7489
7491
29927
17593
30184
6859
29574
3884
14682
14938
28437
5356
21264
27584
28967
29477
27656
2047
17687
17692
17691
7495
7492
1423
14227
14237
14236
2060
17751
17748
17757
29548
7478
7474
2055
17675
17736
17734
17917
24805
19593
15195
343
7834
7845
7847
17609
21217
17735
13898
14207
17756
5230
6889
6882
6874
15130
14203
24783
29983
7490
14355
24781
27280
345
7857
7860
7861
14198
28560
32391
20920
17589
1543
14934
14680
14930
17693
28928
17592
29476
17690
34836
24777
15021
14931
4097
7254
28080
15460
17870
28992
1620
15373
15377
15374
20919
5265
6856
15251
6864
6861
17831
258
7244
7245
7240
1618
5315
15355
15366
15361
15364
15487
17782
2090
17879
17927
17926
256
7220
7228
7230
29176
33184
15248
15252
29910
17925
3819
15382
15129
15126
15376
17921
17919
17731
28433
28841
29188
6872
6880
27652
2790
21259
22155
21906
29012
28464
17866
27973
28467
24807
17733
29189
29953
31780
28926
24796
17924
17865
1523
14678
14813
14815
27657
28434
4155
19597
29878
27571
14235
3984
1558
14748
15014
14746
15047
15010
1568
14932
15018
15051
29177
288
7480
7481
7485
17922
34859
29178
1591
7243
15202
15200
14919
14921
1359
7836
13895
13894
28842
3667
26854
26850
26852
14202
17732
13891
4247
7496
14816
7493
14684
1600
15255
15124
15254
1579
15117
6860
15123
6878
6875
29058
1634
15448
15363
15454
24799
20917
4099
15197
15451
15193
15486
29948
24779
29011
4174
1514
7862
15023
7859
14754
14752
14200
3674
26912
26915
26914
1502
4075
14673
14922
14675
14671
14808
4798
1642
15378
15489
15375
15463
15456
29016
1354
13875
7249
13867
29056
4263
15203
15462
15201
15488
3678
26944
26941
26943
29546
5338
7479
14811
7473
14677
14753
15052
22358
7231
7229
201
6869
6865
6866
4248
7846
7848
15017
14750
17867
29949
4126
15119
15365
15121
15250
24776
27653
13897
17739
28562
21752
27969
7486
7483
26913
4783
14430
6863
6857
6870
3895
14354
7476
7470
7484
28045
344
7853
7855
7849
1542
15015
14918
14928
14925
27972
29640
14674
1619
15258
15372
15253
15367
15369
17590
15199
15453
15449
14676
14929
14672
14812
7482
26851
15371
15368
1424
14234
14242
14241
257
5350
7233
7237
7239
7246
15204
7225
7238
7232
15455
7487
29549
2062
13868
17765
17768
14751
15016
15011
13876
7842
7854
7856
6867
15122
2081
17874
17876
17875
6881
6868
15257
21753
24806
15362
15452
15370
28436
3845
14924
14814
14927
14933
30183
14926
15050
2034
17618
17616
17617
15120
28515
29982
24802
15118
15013
26853
29015
28435
15256
28514
26855
28438
29641
17688
28517
3681
26958
26961
26960
24800
28516
29944
1358
7835
7844
13889
2094
17930
17938
17942
1425
14245
14246
14247
30269
3670
26879
26883
26882
29772
2057
17745
17744
17746
5398
28932
7488
7497
28172
29649
22164
29057
29055
26945
21287
28843
29771
17737
29642
2092
17937
17918
17935
17767
27971
29547
1355
13880
7241
7250
26959
33179
17936
27970
34870
17928
29952
29545
13893
2054
17730
17728
17729
17871
17781
26881
14239
30270
3691
27007
27004
27006
28559
30221
29650
28175
22161
17923
30222
29768
28518
29954
28174
28173
29770
17873
14240
26942
2088
17914
17916
17915
17725
994
11827
11828
11832
2043
17666
14807
17665
13873
29769
29879
17934
17743
3672
26898
26895
26896
1021
11988
11987
11991
2064
17779
14199
17778
26897
17911
26962
27005
3677
26938
26935
26936
3679
26948
26950
26951
993
11822
11825
11823
2073
6876
17830
17827
17689
11831
1020
11985
11984
11981
2049
17686
17704
17702
17614
26880
17664
28519
17727
17776
17607
11982
13887
2067
17794
17792
17793
3692
27010
27014
27013
14244
27011
2075
17841
17839
17840
17828
17703
992
11817
11819
11816
26900
29648
26937
2044
17673
17670
17672
3682
26967
26965
26966
27012
17726
13872
17837
17588
26947
2077
17850
15458
17849
1012
11940
11944
11942
26968
11818
3695
27023
27026
27024
1356
7236
7242
13883
1025
7851
7858
12009
1357
7843
7852
13886
17667
3687
26995
26992
26994
34894
13890
2087
17910
17907
17909
17912
17864
17905
26993
17852
1014
7226
7235
11953
17774
17908
17913
17851
2079
17862
6877
17860
17777
3675
26919
26921
26920
13874
26949
17766
1022
11993
11997
11996
17906
2048
17699
17698
17697
1023
12000
12002
11999
17669
27025
3669
26872
26870
26871
26922
17671
26873
1032
12063
12059
12061
26878
1002
11872
11868
11869
26848
999
11851
11852
11855
11943
3683
26972
26970
26971
17696
17791
1019
11978
11979
11975
12007
26973
2036
17628
17627
17626
3676
26927
26929
26928
17701
12062
17861
13882
3685
26985
24797
26983
1001
11863
11866
11864
17829
26845
24803
998
11847
11846
11849
2040
15012
17651
17650
14238
1015
7227
11958
11955
26964
26884
27015
3696
24778
27028
27027
17668
17652
3690
27001
27002
27003
1028
12031
12034
12027
17872
24804
1003
11878
11876
11875
3673
26904
26906
26905
17663
3684
26975
26979
26976
26908
26940
1010
11928
11930
11929
3689
22162
26999
26998
3693
27018
15450
27016
12033
27019
26892
2029
17585
17587
17586
11952
24798
26899
27017
1018
11968
11969
11973
1006
11897
11892
11896
26874
1007
11905
11899
11903
11904
11873
12032
1005
11888
7850
11887
17615
17826
1426
14250
14243
14251
17700
3694
27021
27022
27020
17848
26984
17582
13892
12057
1031
12055
12053
12054
17824
13877
17694
26986
1004
11880
11883
11882
11820
3680
26955
26876
26954
26847
1030
12047
12049
12048
17661
26907
26978
26933
17584
26989
26843
2063
17771
17773
17772
26903
11980
11938
26957
17838
13884
11986
27000
11931
11939
17625
12058
26917
3686
21288
11830
26987
26910
11856
17857
17695
11992
17836
1008
11911
11913
11912
3668
26861
26863
26862
17847
17790
11910
3671
11976
26890
26889
26888
26893
26875
13888
1027
12023
12025
12024
3688
26956
26997
26996
11983
26865
1026
12016
12014
12015
26934
11845
26977
1415
14195
14196
14197
26980
11927
26868
13879
11974
17775
17858
17859
17662
26963
26911
17825
1009
11922
11920
11921
11900
11821
11949
11889
26924
11829
26877
26926
1013
11948
7234
11947
11894
11885
26866
11862
11886
17613
26925
17649
11945
11941
11919
26867
996
11837
11838
11839
26932
26939
26982
17770
11967
26891
26974
11813
11972
14248
11994
12042
1011
11936
11933
11937
27008
12001
11874
17583
11867
26916
2072
17822
17819
17823
26901
11814
12052
11923
1016
11961
11960
11963
13881
12008
14249
11926
12020
2035
17623
17621
17622
12046
26902
26860
12050
12028
1029
12041
12038
12040
1000
11857
11861
11858
11850
12044
1414
14192
14193
14194
12012
13878
17769
11908
11956
11906
12013
12026
11909
26856
11848
26981
11881
12022
11884
26859
11902
11898
11915
11918
12017
11950
2041
17654
17655
17653
26953
26909
17821
12030
17820
11870
11853
17648
11914
26886
26887
11977
17624
12056
26864
13885
991
11810
11811
11812
995
11834
11833
11835
11840
11826
11809
26930
26931
26952
26969
26894
17620
11932
17619
11935
27009
26869
26990
11815
26923
26991
26885
11971
11970
12018
26946
12045
12043
26918
11990
11989
1024
11998
12005
12004
12006
12003
12036
26988
11824
12019
11907
11891
11893
12051
11995
1017
11966
11965
11964
11959
12037
11954
11962
12010
11934
11916
12011
11925
11924
26846
26844
26849
26858
26857
997
11844
11842
11841
11843
11836
11879
12060
11895
11890
11946
12035
11871
11877
11854
11951
11957
12039
11901
12029
12021
11865
11860
11859
11917
